pair_style eam/alloy
pair_coeff * * Al.lammps.eam Al
