%mem=800MB
%chk=input.chk
#n B3LYP/6-31G(d) freq(noraman) 

no title

0 1
 H	-0.000000	 0.771269	-0.469172
 H	-0.000000	-0.771269	-0.469172
 O	-0.000000	 0.000000	 0.117293


