# Test INCAR file

LWAVE = .TRUE.
LDIPOL = .FALSE.
LCHARG=.TRUE.
LVHAR=False
LVTOT=True
MAGMOM = "0.6 0.7 0.8"
POTIM = 0.5
! IALGO = 20
LORBIT=F
LCORE=T
LTEST=.False.