Poscar file generated with pyCMW
1.0
10.000000 0.000000 0.000000
0.000000 10.000000 0.000000
0.000000 0.000000 10.000000
Cr Ru
1 2 
Selective dynamics
Cartesian
0.500000000000000 0.000000000000000 0.500000000000000 T T T
0.000000000000000 0.500000000000000 0.500000000000000 T T T
0.500000000000000 0.500000000000000 0.000000000000000 T T T
