units metal
dimension 3
boundary p p p
atom_style atomic
read_data structure.inp
include potential.inp
fix 1 all npt temp 600 600 1.0 iso 0.0 0.0 1.0
variable  dumptime equal 100 
dump 1 all custom ${dumptime} dump.out id type xsu ysu zsu fx fy fz
dump_modify 1 sort id format line "%d %d %20.15g %20.15g %20.15g %20.15g %20.15g %20.15g"
thermo_style custom step temp pe etotal pxx pyy pzz vol
thermo_modify format  float %20.15g
thermo 100
velocity all create 1200 83069 dist gaussian 
run 10000
