Poscar file generated with pyCMW
1.0
2.800000 0.000000 0.000000
0.000000 2.800000 0.000000
0.000000 0.000000 2.800000
2 
Direct
0.000000000000000 0.000000000000000 0.000000000000000
0.500000000000000 0.500000000000000 0.500000000000000
