Poscar file generated with pyiron
   1.00000000000000
    16.8820100000000011    0.0000000000000000    0.0000000000000000
    -3.0146470000000001   16.5017859999999992    0.0000000000000000
     0.0000000000000000    0.0000000000000000   42.2657030000000020
   H    Mg   Ne   O
   360   100    36   180
Selective dynamics
Direct
  0.9705151383003715  0.2844202801825893  0.4414128773122421   T   T   T
  0.5292403317295084  0.3350936252421406  0.4448233702812909   T   T   T
  0.8460291460442015  0.1365283224199085  0.5260470098169737   T   T   T
  0.3364704508938433  0.3331721845768091  0.3234485745159653   T   T   T
  0.1877757904356200  0.1339713837422405  0.3613767696308647   T   T   T
  0.4896466832375057  0.7689872301463150  0.2336678741785097   T   T   T
  0.8907225462940551  0.8635394051679761  0.6455315413757023   T   T   T
  0.8099569086117699  0.2512217496721025  0.6767228297149369   T   T   T
  0.0600299912545321  0.6175284516059549  0.3374721709646980   T   T   T
  0.2756612209560000  0.8679224233395791  0.2156131008562224   T   T   T
  0.5818369119078732  0.6686553829677127  0.6279594843450226   T   T   T
  0.0531971004542034  0.2224181006214410  0.2653871318705511   T   T   T
  0.0170286071803024  0.4482687304442495  0.6541241197242647   T   T   T
  0.6931695000559394  0.1372218476901437  0.3371183167850291   T   T   T
  0.3182852595597678  0.3856188253067140  0.2702049547785717   T   T   T
  0.5973717848822947  0.7314446535673558  0.4432633622775632   T   T   T
  0.6229424747315565  0.5749631270508458  0.4183092557020331   T   T   T
  0.8211855748453413  0.5603453538697243  0.4188644806711270   T   T   T
  0.2334676415096709  0.5589207575712652  0.6653263350568321   T   T   T
  0.0451610580914960  0.0909407449381033  0.2740516004571791   T   T   T
  0.9499534869378834  0.7236922505518207  0.6525652513037539   T   T   T
  0.4741633249727900  0.5672287372728426  0.2923888744505762   T   T   T
  0.9162010651217091  0.3543538739144093  0.3806817283284524   T   T   T
  0.2980441637987017  0.4767574358042538  0.4133369618551354   T   T   T
  0.7242816125068184  0.1003839173588677  0.2400292962306915   T   T   T
  0.2555606420815887  0.5971443356203036  0.2365588341083118   T   T   T
  0.6446451279602484  0.2972786676289366  0.3418741530473706   T   T   T
  0.8434233548547874  0.9179444583014872  0.1865022694109209   T   T   T
  0.3963866167527156  0.2338146540488390  0.2493210314120942   T   T   T
  0.5357113537451065  0.9439098259162405  0.2351225853141978   T   T   T
  0.4820771380181046  0.9024619611570089  0.3469988443482653   T   T   T
  0.8166183513404296  0.3109380981744486  0.5821779402401792   T   T   T
  0.8225445856706297  0.9510291897077477  0.3791932330753987   T   T   T
  0.9729951895183984  0.7671569133698877  0.2312784810061383   T   T   T
  0.7635873530089932  0.3190266884646125  0.2739536667333892   T   T   T
  0.8871573639732451  0.2486512278956417  0.3302447504222323   T   T   T
  0.6084449438406525  0.3360762897471078  0.5829948204453620   T   T   T
  0.7823924858954492  0.0143300055327564  0.4488082186651342   T   T   T
  0.9972372066985343  0.1061487404596379  0.4055940886208286   T   T   T
  0.4008460853266544  0.8766066022184065  0.2443984788425098   T   T   T
  0.5943536558563119  0.8673939076670641  0.5317529699976359   T   T   T
  0.5121857237218513  0.1636760984623440  0.3216924701906962   T   T   T
  0.0225034965402560  0.2045131930936403  0.6509353192950756   T   T   T
  0.8618774657189289  0.0942340436435012  0.2479566104915634   T   T   T
  0.7539102000959124  0.6913738260752245  0.3820590507361678   T   T   T
  0.0787456991229574  0.9204951690922304  0.3279753250340912   T   T   T
  0.6464234805092313  0.6502774255821820  0.3420058867938927   T   T   T
  0.3198850715098707  0.1452936403507795  0.2810002554175865   T   T   T
  0.8306649592335871  0.4277699242076404  0.4941978936964567   T   T   T
  0.1957281958588952  0.1666530268201666  0.2829467951250926   T   T   T
  0.1306106952406592  0.2132862478294152  0.5156864984538720   T   T   T
  0.2561789153565875  0.8721585217169493  0.2871582212594030   T   T   T
  0.1064657299858160  0.5653893843589712  0.2669222782191739   T   T   T
  0.1109615712927676  0.5525871833856827  0.4111370482571355   T   T   T
  0.8964058922510562  0.6501869600688261  0.3504344198990486   T   T   T
  0.6370798265761827  0.3832389437976691  0.2361697009753329   T   T   T
  0.5689909793704856  0.8930349773800422  0.4429647003410585   T   T   T
  0.8332650041265990  0.2149953858254725  0.4305269104971448   T   T   T
  0.5298149972014591  0.9335492191470627  0.6184612478655267   T   T   T
  0.5666604443098373  0.7685770047745860  0.3786699761304994   T   T   T
  0.0715589099371371  0.0935554148434194  0.5532106437837447   T   T   T
  0.7461300676712961  0.9818253940673819  0.5420871308501298   T   T   T
  0.6802224315662405  0.9246604535134110  0.3272885368954929   T   T   T
  0.7387379466355882  0.6052793138594135  0.2306036401265702   T   T   T
  0.0793373912158701  0.8437687152780976  0.2559350451162853   T   T   T
  0.2218574530533541  0.4321171776576374  0.3639414435631660   T   T   T
  0.0043556150716952  0.8397315408079542  0.3828388889968488   T   T   T
  0.6820946320805777  0.9056409879356291  0.3720230811700411   T   T   T
  0.9442307352948506  0.8336812935785645  0.4309447000895440   T   T   T
  0.8879158721447589  0.8021810150981022  0.5330142372933070   T   T   T
  0.7141106777975109  0.8266187886069625  0.2457302951555526   T   T   T
  0.8513014164907695  0.6981216199021453  0.3106773211690360   T   T   T
  0.4519826757835567  0.6733302839997648  0.3911669692990799   T   T   T
  0.6341302670920225  0.5504678979033443  0.3015747228196418   T   T   T
  0.6308404830166545  0.7246243508605440  0.6668833356331296   T   T   T
  0.3750517716495516  0.1498280275530488  0.5663187816200073   T   T   T
  0.7614032710132552  0.5082900788410398  0.2985782158575505   T   T   T
  0.3256960951842174  0.3231327866877542  0.6659726447445840   T   T   T
  0.4115764283050961  0.1453748584368779  0.3706132888695362   T   T   T
  0.7839499250459150  0.8767045403390893  0.4702428684427938   T   T   T
  0.8776073748168763  0.9923008268257990  0.2906445657206645   T   T   T
  0.2144553697063500  0.5467826104639010  0.4561970786852164   T   T   T
  0.7272748638238538  0.4673984735725483  0.3545143839742914   T   T   T
  0.4933075744482354  0.5551766307423267  0.4987254702253372   T   T   T
  0.6564353152179490  0.3420713589001324  0.4272861484326158   T   T   T
  0.9250474519307634  0.9326754992988058  0.3311752973219718   T   T   T
  0.6640580609000226  0.1540398480526754  0.4704329192225785   T   T   T
  0.5048068308770082  0.4993564481055499  0.3930010290101674   T   T   T
  0.1334991716724397  0.7389682616387973  0.4145445729445120   T   T   T
  0.2788376748807998  0.0223425193043814  0.4904731568481214   T   T   T
  0.8051053568160471  0.7169176619744767  0.4892097893884023   T   T   T
  0.0075904277228105  0.4899653797823147  0.5232981853065526   T   T   T
  0.9496809518434717  0.3596899206916144  0.2148674745647714   T   T   T
  0.6883916094065482  0.4223519363044570  0.5040431822224892   T   T   T
  0.0348901685300067  0.2756001795345972  0.3660763839323701   T   T   T
  0.3386050925439033  0.0794850198651989  0.2393995366359744   T   T   T
  0.0893868145714855  0.7419752821846018  0.5197301499284629   T   T   T
  0.3326287547478182  0.3754481932843106  0.4541166085257146   T   T   T
  0.0428048011393751  0.8258963268272106  0.4701755885114751   T   T   T
  0.7323159262845162  0.1399066663793242  0.3924479131413717   T   T   T
  0.0173308765364525  0.2332660567366058  0.5085090152945889   T   T   T
  0.9260868492351212  0.9810796821561503  0.5114897905288071   T   T   T
  0.4072504625276885  0.2338355784113509  0.4255527884385145   T   T   T
  0.2845801187685436  0.2622203032803439  0.4254863549413758   T   T   T
  0.9381595232621222  0.0372071578727995  0.5671742419828198   T   T   T
  0.0280929147893390  0.6547544589724678  0.5559187518298031   T   T   T
  0.3655812380229970  0.5766343293309545  0.3327472190278216   T   T   T
  0.4449060444576842  0.7842959911923559  0.5882951997487008   T   T   T
  0.4207191404700108  0.6194556041129551  0.5311511852033995   T   T   T
  0.7786348991020370  0.4991983601832393  0.5324526664070874   T   T   T
  0.1205164037314222  0.9913478099354961  0.4445396649171822   T   T   T
  0.8202989347088145  0.4621008164366848  0.6395865367843350   T   T   T
  0.2833555792927999  0.8064511932400146  0.4274661430080494   T   T   T
  0.2387544101223065  0.2753406773978739  0.4844515920456239   T   T   T
  0.4958792923002802  0.4638856584238785  0.6200569271605719   T   T   T
  0.2307971162116989  0.8614968224077861  0.5899674691297687   T   T   T
  0.3816396773279684  0.1224098638015989  0.4842550224676982   T   T   T
  0.2196788135442844  0.6778665041684224  0.6313424404135425   T   T   T
  0.6998205241571925  0.5169295673730252  0.6488782119292953   T   T   T
  0.4512018165416625  0.3147321263662996  0.3545990733269792   T   T   T
  0.5887202033308065  0.6202881483972756  0.5492901688885966   T   T   T
  0.3263721914923449  0.5836979197135092  0.4889408131314631   T   T   T
  0.2187706588342848  0.3156523992932481  0.6332003503076624   T   T   T
  0.4782703012769275  0.3466421546218518  0.2595943951797843   T   T   T
  0.9249314231275840  0.9637648928708408  0.2259028178549876   T   T   T
  0.1377505742805580  0.9743693987977051  0.6467672687450744   T   T   T
  0.1975737563674620  0.1482097590223756  0.6129631363977217   T   T   T
  0.3430767802273534  0.8823216429821971  0.6786511626540155   T   T   T
  0.3568992817495708  0.4598532180045876  0.5881703720111828   T   T   T
  0.4035389515018672  0.8613082250985787  0.3145628269981743   T   T   T
  0.8716052659309561  0.6839752682593834  0.5938259861179426   T   T   T
  0.8659507338504342  0.9185648194956968  0.5790819743326796   T   T   T
  0.5439166394782591  0.0843920658390810  0.4307685185575926   T   T   T
  0.4537143589424703  0.4660289805386446  0.6756680625501331   T   T   T
  0.4751996511852408  0.0465095879539950  0.3840046999323051   T   T   T
  0.7163134756778795  0.1229518731013620  0.6297247040515219   T   T   T
  0.4236708131190289  0.6851092173639903  0.4424271338461783   T   T   T
  0.3926256138169339  0.7452717379015561  0.4884319387442824   T   T   T
  0.2815798561370735  0.0307677338791282  0.3437515663581162   T   T   T
  0.9996229566968798  0.2928488915476099  0.5911243195286341   T   T   T
  0.5258256892447312  0.9800241162199335  0.4690641268513397   T   T   T
  0.1720784474963719  0.7810572461000739  0.4728208598916936   T   T   T
  0.3731293521691062  0.2756157396032538  0.5476448848404615   T   T   T
  0.4071981883575820  0.1121253512557897  0.6203767519310870   T   T   T
  0.3927921958340705  0.1272864796013599  0.6789725140423452   T   T   T
  0.2998453560856987  0.0022573350041818  0.4333719206367904   T   T   T
  0.4906878106272843  0.3480799391878910  0.5482676266018827   T   T   T
  0.2303166714417029  0.9813546911620395  0.6154838588762251   T   T   T
  0.6623479056639268  0.8340605616054189  0.6095117103343979   T   T   T
  0.8012318665664997  0.6039281318362747  0.5627707623553672   T   T   T
  0.0591407351977818  0.0706376775427715  0.6528936780545654   T   T   T
  0.5343111159873170  0.2939257552466489  0.6630497962742052   T   T   T
  0.3189107207716393  0.7474882828562666  0.3733715609618664   T   T   T
  0.4444657644547867  0.4715698391259316  0.1936308152707988   T   T   T
  0.3478701417763693  0.8664583390280491  0.5103093026307530   T   T   T
  0.5870453604286369  0.8703131237802865  0.6589296730460245   T   T   T
  0.8712964369330635  0.4793810892887386  0.3963582465487770   T   T   T
  0.2225720556853003  0.9526499144361230  0.5497087264749004   T   T   T
  0.9946238065831375  0.5359422085209387  0.2470382495952989   T   T   T
  0.2503836700207767  0.4147100250330836  0.5415371182541718   T   T   T
  0.6216720038595670  0.2866252181661781  0.2871755903504085   T   T   T
  0.4011377266083419  0.7202006640526659  0.6440293553206683   T   T   T
  0.0188565145872898  0.6388819013599826  0.6140111301469642   T   T   T
  0.8318507331903654  0.9116137605026434  0.6827353669801821   T   T   T
  0.7217677184650965  0.1579012557227194  0.5849867532448331   T   T   T
  0.6448089114966419  0.6437769647377909  0.2369650612680197   T   T   T
  0.0097372800435862  0.0356110259242175  0.4800321211616906   T   T   T
  0.2437436417474202  0.5499968140707632  0.3332262705647623   T   T   T
  0.6283303632006362  0.0741792836782785  0.6726600489907631   T   T   T
  0.1730077414780652  0.3478380920356877  0.2325880155099376   T   T   T
  0.5212615601688748  0.1191843138476002  0.5445188020199052   T   T   T
  0.0549938994279479  0.5113679196578768  0.5743039158596558   T   T   T
  0.2224359147274943  0.6160294810120102  0.2906437010223933   T   T   T
  0.1289565351893201  0.8260550968013823  0.6458520345935398   T   T   T
  0.2043557020614264  0.0389792137851186  0.2185294801701018   T   T   T
  0.9104920574434123  0.0294796989391748  0.6240399444181892   T   T   T
  0.8306479796949614  0.7483803443154849  0.6575135810125962   T   T   T
  0.7795325758910120  0.7253871645423868  0.2685110940196807   T   T   T
  0.4722771751514996  0.9275238898367284  0.5215810292176764   T   T   T
  0.8522959103223949  0.7163115684819138  0.4118693054504607   T   T   T
  0.9287163122005593  0.2367512738933997  0.4696219755070021   T   T   T
  0.5973602978757918  0.3962736099966830  0.4675447585823634   T   T   T
  0.7597978852748474  0.1482779548901627  0.5432254409519706   T   T   T
  0.2561042060906458  0.3741744725868659  0.3225443733709099   T   T   T
  0.1229713367720993  0.1260025141388769  0.3873569130268708   T   T   T
  0.5479088778991588  0.7086878285998237  0.2282675449299889   T   T   T
  0.9869755440533028  0.8584685571356419  0.6362261567561839   T   T   T
  0.8923636580847950  0.2537956860953122  0.6604016175080620   T   T   T
  0.0934784256661812  0.5439202241341851  0.3429471161118737   T   T   T
  0.2616858946628253  0.9100443627409590  0.2471625363358750   T   T   T
  0.4972433866305100  0.6663803632741409  0.6319645455092563   T   T   T
  0.9791512225486516  0.2309927758977729  0.2867353394806357   T   T   T
  0.1052198133135829  0.4921702338347910  0.6529472384712247   T   T   T
  0.6739572903785533  0.1180330142917756  0.3004911855585748   T   T   T
  0.3286935253271570  0.3549161667167151  0.2362480276852236   T   T   T
  0.6387077686035727  0.6652171736725837  0.4584085195480420   T   T   T
  0.5896142599010503  0.4763258313948033  0.4225201581476725   T   T   T
  0.8227643143137446  0.4866620855840342  0.4417462719172305   T   T   T
  0.1819796729763796  0.5953736035026546  0.6853843851366567   T   T   T
  0.0962485332159461  0.0311583197810778  0.2941553090657421   T   T   T
  0.9777339498995746  0.6618188040846287  0.6722906550958319   T   T   T
  0.4617523635181975  0.6051219928604666  0.2569376603630061   T   T   T
  0.8540232112522927  0.2643864344648058  0.3845834188729121   T   T   T
  0.2306156351451562  0.5120063768905788  0.4013737604214651   T   T   T
  0.7142346195117298  0.1880104612249348  0.2396061983221014   T   T   T
  0.2921111239335214  0.5142545485435128  0.2348883272722816   T   T   T
  0.5669170609832576  0.3297190147988287  0.3368695984096717   T   T   T
  0.7887468258433437  0.9411044233435767  0.2158654684793587   T   T   T
  0.4327164909684199  0.2644356297696465  0.2160767804794685   T   T   T
  0.6088860402780374  0.9321762475490968  0.2128850076225277   T   T   T
  0.4823208002778914  0.8061747390752356  0.3513294875852405   T   T   T
  0.8408257089301474  0.4011778530754349  0.5929791093602057   T   T   T
  0.8994676026190376  0.9963613877808288  0.3927015120985601   T   T   T
  0.9610796641760926  0.6644929355838706  0.2204736625533821   T   T   T
  0.8438085414144235  0.3144385080818151  0.2887091460143031   T   T   T
  0.8193278586653829  0.1945873457868050  0.3094262139676940   T   T   T
  0.6056415223545711  0.2820791040417819  0.6108985058794986   T   T   T
  0.7805079006976863  0.0918067549209029  0.4267309746448790   T   T   T
  0.0203126122930525  0.0549994665482375  0.4303074824440496   T   T   T
  0.4502846015851178  0.8314239209536879  0.2672397171481276   T   T   T
  0.5258518272843187  0.8049613705216836  0.5495706423305853   T   T   T
  0.4818687004792487  0.0806188337882249  0.3256846448407879   T   T   T
  0.0395116677926808  0.2942497036533722  0.6673097675137759   T   T   T
  0.9140815405712167  0.1785604032001041  0.2424611847643408   T   T   T
  0.6860792655760085  0.7464763548902439  0.3787383106677491   T   T   T
  0.1530001033787428  0.9773394825097889  0.3356382965950297   T   T   T
  0.5707891549212865  0.6437850883039168  0.3174923385954118   T   T   T
  0.4059228423902318  0.1128597523241301  0.2813426169560913   T   T   T
  0.8358333226669700  0.3750234359313296  0.4605729028814606   T   T   T
  0.2533208881556657  0.2455496332083771  0.2997199491775120   T   T   T
  0.1398957533889388  0.3068099639616718  0.5151665393421574   T   T   T
  0.1799501773715750  0.9179925883965453  0.2981180560214706   T   T   T
  0.0429510756056524  0.5585178852948361  0.2898568930276484   T   T   T
  0.0312836427308860  0.5351110751739802  0.3885653667537393   T   T   T
  0.8778350589350291  0.5721038774793841  0.3302733029674881   T   T   T
  0.6264810121963328  0.3860525321177175  0.1982100407569314   T   T   T
  0.6507292693921641  0.8722307563650419  0.4567863763373879   T   T   T
  0.7458921879697333  0.2320988933743409  0.4215267935610051   T   T   T
  0.4745736097362088  0.9732041165050295  0.5959016276414032   T   T   T
  0.6180133967469000  0.8206464019423997  0.4044794309999050   T   T   T
  0.1559107465979384  0.1379689321023827  0.5653961305342288   T   T   T
  0.7280150981236769  0.8875527874791178  0.5577011146857135   T   T   T
  0.5910824437102098  0.9006694163689094  0.3138121036211608   T   T   T
  0.7130122853637075  0.5194065277689182  0.2111600459854030   T   T   T
  0.0153881683046846  0.8479023099251194  0.2777151956705719   T   T   T
  0.1466350347033921  0.4213968983164343  0.3438501147387212   T   T   T
  0.0897277958277726  0.8071385190607626  0.3720810046400066   T   T   T
  0.7217130524855881  0.9996392793995622  0.3706743088689405   T   T   T
  0.9053267930187358  0.8716785546022476  0.4010548032753071   T   T   T
  0.9274806747150667  0.7172110800384907  0.5277642025820208   T   T   T
  0.6840879813055939  0.8957650777745229  0.2701850010551297   T   T   T
  0.7910187645687845  0.7453887402991547  0.3283838539620915   T   T   T
  0.4606188236079191  0.6729437628335145  0.3534100002154636   T   T   T
  0.6257881043030417  0.4584915220124503  0.2941030531447369   T   T   T
  0.7093395828437945  0.7200408980132210  0.6457047213882104   T   T   T
  0.4232850854362317  0.1822551238104605  0.5342259532847015   T   T   T
  0.8218369772216249  0.4500967109529763  0.2962000625201422   T   T   T
  0.2595156413518309  0.2720862317989138  0.6835612271152961   T   T   T
  0.3594991458161124  0.2092361700994784  0.3788124178332964   T   T   T
  0.7260091792631495  0.8893348337154562  0.5003470420949502   T   T   T
  0.7875049452530067  0.9815624254263102  0.2815552018948386   T   T   T
  0.1297986850329880  0.5276869090482511  0.4643822939389443   T   T   T
  0.6615822316937046  0.4590414227893388  0.3737661012263129   T   T   T
  0.4876855956150490  0.4974358987725042  0.4712380982777343   T   T   T
  0.6928054299909059  0.3374218172962218  0.3947507672090071   T   T   T
  0.8886282887513146  0.8569835081400216  0.3101245840995585   T   T   T
  0.7121164985596827  0.0980143087093910  0.4879952954547072   T   T   T
  0.4172696992554899  0.4726105233967326  0.3979359993311788   T   T   T
  0.0916063473048379  0.6760675052278167  0.3878964842463691   T   T   T
  0.3653068308454201  0.0050545868624927  0.4916716965443802   T   T   T
  0.7775089043534495  0.6258684099414440  0.4853901419271394   T   T   T
  0.9493985017425522  0.4807155769260118  0.4926015200786846   T   T   T
  0.8628609344726330  0.3352538741516165  0.2302458860703065   T   T   T
  0.5920180565730674  0.4156847102605865  0.5139695500026765   T   T   T
  0.1062704484691088  0.2377724178345852  0.3493797410025953   T   T   T
  0.3098626399237086  0.9906933798059523  0.2163014052153126   T   T   T
  0.1565765171813814  0.8167514007204661  0.5208545313406101   T   T   T
  0.3530437267037249  0.4664635237072075  0.4584611210414890   T   T   T
  0.9586633049411749  0.8017502194936271  0.4796412700518162   T   T   T
  0.6520207026469640  0.0863074293051484  0.3874803121124631   T   T   T
  0.9829686962340198  0.2463147237343859  0.5399186647086803   T   T   T
  0.8825255529749287  0.0240146930539624  0.4874449571179592   T   T   T
  0.4524438702016433  0.2163963894190762  0.4542904028605813   T   T   T
  0.2401945380926347  0.1972332890238173  0.4022320423498069   T   T   T
  0.9822111599253077  0.9653578730831205  0.5601031581768355   T   T   T
  0.0035252650735446  0.6238729931913332  0.5186434294584999   T   T   T
  0.4434366521641943  0.5314144733049904  0.3463182921242355   T   T   T
  0.4789279144865149  0.7062446841250726  0.5951423730911654   T   T   T
  0.3519336349678177  0.6778310521021077  0.5345417190669869   T   T   T
  0.8067755175145321  0.4107625213077893  0.5412932718452719   T   T   T
  0.1389914351863159  0.9321887415141787  0.4182749477419894   T   T   T
  0.8236679424515885  0.3769052661438823  0.6433927965679245   T   T   T
  0.3803366750272167  0.8183365438099208  0.4347362617844311   T   T   T
  0.3215291086620782  0.3115739645609653  0.5005136487072727   T   T   T
  0.5055281364825539  0.5436471060151842  0.6044713455945563   T   T   T
  0.2049608406388153  0.7769225805674845  0.5781251329649673   T   T   T
  0.3679809910172964  0.2165593561767775  0.4807775315231801   T   T   T
  0.2572572570201312  0.7611350327504167  0.6394121734977219   T   T   T
  0.7507938913390811  0.5384537389014104  0.6813456685328029   T   T   T
  0.4529714424732422  0.4081077679834588  0.3548486273920503   T   T   T
  0.6285975710475376  0.6154097963348066  0.5147511307951260   T   T   T
  0.2623963034717934  0.5052270920743304  0.4965294215585986   T   T   T
  0.1575674736610133  0.3725795069294527  0.6250438771254665   T   T   T
  0.4823159415388986  0.3856534828698328  0.2929143511228118   T   T   T
  0.0013685935117506  0.9512545418068213  0.2423467221606351   T   T   T
  0.1702368332069757  0.0393082773655036  0.6714449040338630   T   T   T
  0.2784321183272274  0.2123453182180988  0.6045338277747295   T   T   T
  0.4034692260945306  0.8958606746669526  0.6506740806127465   T   T   T
  0.2788485811205675  0.4017846243408481  0.5933287387520423   T   T   T
  0.3196739592140844  0.8138409738304970  0.3226573102298838   T   T   T
  0.8447951102786615  0.6270703583336977  0.6200138433261214   T   T   T
  0.9125823239914410  0.8620945023873420  0.5957008289371095   T   T   T
  0.5153984867176548  0.1658831018428580  0.4245199429926854   T   T   T
  0.4525198931759546  0.3871578979955395  0.6586512811820806   T   T   T
  0.3852610207815543  0.9958618594329094  0.3797119752019901   T   T   T
  0.8025257097529691  0.1929526020949036  0.6296851209843742   T   T   T
  0.4451532083449295  0.6036459431023657  0.4464444063810314   T   T   T
  0.4690008231243836  0.7926311555245332  0.4783898526958070   T   T   T
  0.2631231421724931  0.0151602415387848  0.3812152344975775   T   T   T
  0.9379135606830743  0.3327461742724863  0.5720120122445479   T   T   T
  0.6063897801199979  0.0343971253680098  0.4573223543777168   T   T   T
  0.1968332064212123  0.8527439542795556  0.4492776917481743   T   T   T
  0.3514888595029490  0.3584756610099268  0.5524287057917838   T   T   T
  0.3615550304933629  0.0389238035744585  0.6019624986943297   T   T   T
  0.3509724280405642  0.1966078270967783  0.6644210875705067   T   T   T
  0.3260511787299993  0.9232581541717333  0.4150644417246364   T   T   T
  0.5334993233927118  0.4228969798358321  0.5667087507048212   T   T   T
  0.2876314439116714  0.9252828172108829  0.6320693532948767   T   T   T
  0.7362482045371322  0.9036392114414038  0.6108045830720681   T   T   T
  0.7108243760790011  0.5736430930579227  0.5542574413487712   T   T   T
  0.9842632278177057  0.0748204045038731  0.6722072132285218   T   T   T
  0.4766469120743612  0.2199070895396546  0.6520715039242497   T   T   T
  0.2281300519459080  0.7407642296560666  0.3628817568823079   T   T   T
  0.4004324710880354  0.4425700661681256  0.2268926694155213   T   T   T
  0.2955553913767959  0.8147838676829150  0.5346547663484776   T   T   T
  0.6046978549307438  0.9444804856431571  0.6801644760649108   T   T   T
  0.8896399617907962  0.4711491123935919  0.3596084410122207   T   T   T
  0.1875917838627862  0.0284262349206079  0.5349147990450125   T   T   T
  0.8922905771617961  0.5209088646756402  0.2369900304903105   T   T   T
  0.1660127421750548  0.4408094386964579  0.5382356028271642   T   T   T
  0.6250758031280009  0.2405637349961313  0.2555644952519896   T   T   T
  0.4498670867428765  0.7147875187521999  0.6763577408010064   T   T   T
  0.1011727570852094  0.6953965214313084  0.6017828466081732   T   T   T
  0.7658434431943885  0.8485865096137118  0.6687451725733183   T   T   T
  0.6823862667362390  0.2250798239014171  0.5715385713996904   T   T   T
  0.2532065167607305  0.8551683639305656  0.1678108199525760   T   T   T
  0.0853358374477538  0.0910671727482143  0.4879912916838937   T   T   T
  0.2600135497820812  0.6463119328768326  0.3372317881489844   T   T   T
  0.5991112821631854  0.1466359508890085  0.6520872569325926   T   T   T
  0.1096739447058803  0.3761677804304496  0.2588071615981076   T   T   T
  0.6083013333306626  0.1094810419988224  0.5469175954010107   T   T   T
  0.0521200884454591  0.4140264930504623  0.5724096076149600   T   T   T
  0.1968876134169524  0.6878593539053518  0.2698505556240703   T   T   T
  0.0814864450840524  0.8376809491155005  0.6783923255219457   T   T   T
  0.1303674861315822  0.0451188888789575  0.2455561060023655   T   T   T
  0.8499288033863089  0.0720339319446628  0.6038309017329653   T   T   T
  0.7864369537404777  0.6631746675548402  0.6626992823730852   T   T   T
  0.7864300943175770  0.7461302298590701  0.2329370865611442   T   T   T
  0.4971585644042485  0.0124208446521444  0.5153439912723068   T   T   T
  0.8042857610216797  0.6650398417236216  0.4373770770032027   T   T   T
  0.9809477788378645  0.5344295539588054  0.1801544384171127   T   T   T
  0.5215378356238837  0.0106898348011992  0.1815908077674749   T   T   T
  0.8212454976791399  0.6025743402159627  0.1784635325085408   T   T   T
  0.8777060654887392  0.1018094880134276  0.1839520464530977   T   T   T
  0.6364122944533622  0.6521066027732583  0.1735971042927413   T   T   T
  0.6923794361130809  0.1585964683053608  0.1788141251841833   T   T   T
  0.9921481697600362  0.7323426166057245  0.1649634494838764   T   T   T
  0.5254387206067757  0.2028136734345195  0.1624532538737996   T   T   T
  0.7996632706491160  0.7816878255883203  0.1562672987385454   T   T   T
  0.8685513507385419  0.2894856443756240  0.1547217706599218   T   T   T
  0.6381268968138892  0.8639499728257236  0.1490430631150620   T   T   T
  0.6965725825163095  0.3287964457687101  0.1485648429602092   T   T   T
  0.9691393634414072  0.8967752399941068  0.1411968724220259   T   T   T
  0.5280370445448125  0.3839989638631102  0.1377660879133075   T   T   T
  0.8120505399476571  0.9575238616378353  0.1256170775045397   T   T   T
  0.8501263824971301  0.4464221708630400  0.1364676470042372   T   T   T
  0.6527397547667924  0.0241257950638551  0.1267121201080874   T   T   T
  0.7064645514708843  0.5143664088090848  0.1285968368627251   T   T   T
  0.9792481949385259  0.0595718256161788  0.1126166247973647   T   T   T
  0.5227087716776699  0.5702596888060238  0.1189145021858272   T   T   T
  0.8294195024882596  0.1233774455892362  0.1100931575881637   T   T   T
  0.8647427808855197  0.6388834535597159  0.1087356475754796   T   T   T
  0.6412987408807949  0.1850866983629494  0.1046444846915684   T   T   T
  0.6843991081312945  0.6904554131953775  0.1068380197873045   T   T   T
  0.9636056039149369  0.2418470270685166  0.0982233030194246   T   T   T
  0.5276805000000000  0.7550070000000000  0.0932423000000000   F   F   F
  0.8044770000000000  0.3050680000000000  0.0867673100000000   F   F   F
  0.8598360000000000  0.8150800000000000  0.0854720200000000   F   F   F
  0.6366335000000000  0.3651420000000000  0.0789970200000000   F   F   F
  0.6919925000000000  0.8751540000000000  0.0777022100000000   F   F   F
  0.9687890000000000  0.4252150000000000  0.0712267400000000   F   F   F
  0.5241479999999999  0.9352270000000000  0.0699319300000000   F   F   F
  0.8009455000000000  0.4852890000000000  0.0634564600000000   F   F   F
  0.8563045000000000  0.9953010000000000  0.0621616500000000   F   F   F
  0.6331010000000000  0.5453620000000000  0.0556866500000000   F   F   F
  0.6884605000000000  0.0553740000000000  0.0543913700000000   F   F   F
  0.9652565000000000  0.6054349999999999  0.0479163700000000   F   F   F
  0.5206155000000000  0.1154470000000000  0.0466210900000000   F   F   F
  0.7974130000000000  0.6655090000000000  0.0401460900000000   F   F   F
  0.8527720000000000  0.1755210000000000  0.0388508100000000   F   F   F
  0.6295685000000000  0.7255819999999999  0.0323758100000000   F   F   F
  0.6849275000000000  0.2355940000000000  0.0310810000000000   F   F   F
  0.9617250000000001  0.7856560000000000  0.0246055200000000   F   F   F
  0.5170840000000000  0.2956680000000000  0.0233107100000000   F   F   F
  0.7938805000000000  0.8457290000000000  0.0168352400000000   F   F   F
  0.8492395000000000  0.3557410000000000  0.0155404300000000   F   F   F