Poscar file generated with pyiron
   1.00000000000000
    16.8820100000000011    0.0000000000000000    0.0000000000000000
    -3.0146470000000001   16.5017859999999992    0.0000000000000000
     0.0000000000000000    0.0000000000000000   42.2657030000000020
   Mg
   2
Selective dynamics
Direct
  0.8685513507385419  0.2894856443756240  0.1547217706599218   T   T   T
  0.6381268968138892  0.8639499728257236  0.1490430631150620   T   T   T

  0.50000000E+00  0.50000000E+00  0.71608185E+00
  0.50000000E+00  0.66666667E+00  0.71608185E+00
