H Zn
15.8
0.5 0.0 0.0
0.0 0.5 0.0
0.0 0.0 0.5
 1 32
selective Dynamics
Direct
0.125 0.125 0.125 F F F
0.00 0.00 0.00 T T T
0.25 0.25 0.00 T T T
0.25 0.00 0.25 T T T
0.00 0.25 0.25 T T T
0.50 0.00 0.00 T T T
0.75 0.25 0.00 T T T
0.75 0.00 0.25 T T T
0.50 0.25 0.25 T T T
0.00 0.50 0.00 T T T
0.25 0.75 0.00 T T T
0.25 0.50 0.25 T T T
0.00 0.75 0.25 T T T
0.50 0.50 0.00 T T T
0.75 0.75 0.00 T T T
0.75 0.50 0.25 T T T
0.50 0.75 0.25 T T T
0.00 0.00 0.50 T T T
0.25 0.25 0.50 T T T
0.25 0.00 0.75 T T T
0.00 0.25 0.75 T T T
0.50 0.00 0.50 T T T
0.75 0.25 0.50 T T T
0.75 0.00 0.75 T T T
0.50 0.25 0.75 T T T
0.00 0.50 0.50 T T T
0.25 0.75 0.50 T T T
0.25 0.50 0.75 T T T
0.00 0.75 0.75 T T T
0.50 0.50 0.50 F F F
0.75 0.75 0.50 F F F
0.75 0.50 0.75 F F F
0.50 0.75 0.75 F F F