Test POSCAR
1.0
12.767600 0.000000 0.000000
0.000000 11.057066 0.000000
0.000000 0.000000 51.056390
H Mg O
432 96 216
Cartesian
-2.201237030456040 -1.113461713408360 4.925629523721430
-3.496327148417790 -4.772814298204190 8.974964310826280
-0.078534810664964 -1.245095659583360 16.909209086228199
-0.502826022007998 -2.583340345209430 16.404043557671500
0.784060260443722 -2.631200628409890 20.396093493361501
2.855024584322930 3.770335365481640 24.889848078292601
3.516518460912830 -1.852504921989240 6.319891968583430
0.116010456346131 2.490351022803530 8.396400291437841
1.740853102809360 -5.708729908721730 16.992414539394300
0.366050034963528 -5.601703714399230 16.284878207333499
3.628591922254630 -0.839796422648002 23.039513985228002
4.815760834233390 -0.396885298629767 23.743316157560699
-4.599103393006070 1.633784529485000 29.934576969688599
-1.483446388950990 1.166498253405270 23.553342616974899
0.464563814393785 2.283946782423960 12.691362586773900
0.350032069641034 2.151542560100030 14.228483716007201
2.293247724163850 2.421571767136720 17.964027940914200
3.331241424432100 1.992647628359510 16.931666116201100
2.984102883790230 -0.325284729182817 11.077513715235900
2.236462585567840 -1.106567497604360 12.230653514970401
2.509856069641960 4.332230754947360 12.165104110230400
0.136030596032228 -5.949971571719860 4.164777139593460
-1.513375297827310 2.124197449691890 21.619499882476902
-2.983958688418510 2.298653592603820 21.150107038755699
0.217477017584208 -2.097075842980890 9.949134429420949
1.021417403770110 -0.844461980725741 10.246764135740699
4.005721639359230 1.323285275041420 9.835041725808921
3.384118202341370 1.999689946461460 11.132244824700100
-1.701750013237560 0.773245796354296 18.721405593026500
3.774750364359490 -5.498888780050550 17.357296142595501
-2.990615787869870 -0.338866267966342 20.132078269040601
-2.089280023027290 0.182733463865657 21.170700228581101
-1.582511131535720 -1.217941406010320 11.985548427760801
-2.503989338428810 -0.190248215809326 12.746217579194999
2.192851913612970 -0.816554802612123 14.559326691413901
1.195790962504420 0.067394053058976 13.972237622718501
-6.297532319109620 -4.741756154690520 6.915672809099280
-0.088331669688509 0.117222181883141 7.044974495112300
-0.778287195966470 3.214121758812530 15.275088965005599
-0.929912889328900 2.221023006807670 16.415593746191899
1.929120851245110 -0.537644011591649 19.091692879191900
2.814742336204660 0.270092168548876 18.207432704614099
-2.269874048071070 -3.310948332517330 18.259423111253302
-3.358164029980460 -3.702892141011110 17.301738989424599
-0.493083927426467 -4.390826745195050 10.693575756962700
-1.416208207799940 -4.738958816000810 11.943303840561200
-3.982119262810980 9.024052656568610 19.808492852362100
-5.367012274224010 -1.365409982933240 20.000593837493899
2.771593706908700 -7.828349669560170 6.559045209893220
3.708750903253430 -9.079186884686360 6.137676512160950
-2.801431731527260 -0.105746533132654 16.846584010473698
-2.219871263541250 -1.450478343110320 16.610966392029798
0.031214758683186 -1.560848499653990 18.727689481869700
-0.730152399606800 -0.854786587881296 19.846006122073000
2.172403853620680 3.827993938714820 28.364839894062801
2.606793521042550 -2.212172461817290 27.469930414794401
1.958124926513740 -1.003605406518060 31.480697068106601
2.399761644454180 -2.385514322085910 31.868694936330400
7.321168432675480 -2.442050971331800 44.597062950121398
6.490009224337390 4.110319630837690 42.120856432571898
5.529407652882030 -4.010154042597190 27.255393281185199
5.613521481387070 3.541058974193550 22.358709011881899
-0.098537828756173 0.682382134696045 35.006165668471397
0.709670278017149 -0.527608106608378 35.152896461503701
6.608642579533430 -0.307900589946778 43.780895846047997
5.536793777989060 0.674578900266894 44.088338097688300
0.833145985196285 -6.283212021352710 44.595622482241900
5.702123307704500 2.605827450819370 45.294163942422500
4.576906098845180 1.384040663106510 35.162398879612397
5.054124340079990 0.126554687863239 35.697013281614801
2.027608291408000 -2.523033219658680 34.861417758248002
1.143989809497290 -2.044653071986040 33.728413871580500
3.919682543934560 4.740442849641920 29.488156127902400
3.538078668254520 3.471260032478180 30.154621318495899
2.937891254500990 3.339539142771640 32.828119958724798
3.707712197464160 -4.784585238979120 30.685064978716099
4.560261335377950 -0.862575992996449 42.798814963704103
3.399986695310740 -1.154760594720450 41.777509265924202
-1.254439426114770 0.617048647862507 26.284535767344099
-2.431352579394850 -0.307196362307838 26.451612151497500
7.094410860353050 -3.548710063146870 34.508562769048403
7.129678319529010 -2.119681602696610 34.854784259935101
1.296223856407000 -0.052370402757093 37.269949295506997
5.441513152762710 -2.654696688107690 36.705176049769001
3.625095418027870 -0.797931655761174 46.783049069450399
3.847283745377220 -0.239942641238455 45.503767880416902
9.956819396209770 -1.311350634220700 33.368038550688198
11.086408130764500 -0.377133049567586 33.711893341384403
7.692040871477880 0.439552304474104 35.537802153325700
8.854132821112071 -0.475979004268812 35.888737133646302
2.245026249643620 -0.095417468455338 25.359395550873099
5.077670890653350 0.598717538362568 28.852223867936900
1.468464209019030 -3.787491054607010 30.189017925191600
1.778831426351620 -5.269128489730520 30.636944151785499
4.559717898569100 3.279227664977240 36.840997564318101
5.289354285008600 3.181178410304370 35.613109495150098
3.551584214507120 -2.477568913480920 45.072895549209498
3.897142981230340 -2.598390310631800 43.640098631172400
4.794588357244110 -2.048727054272640 34.250092391312997
3.626384906475320 -1.198195991559200 34.210218298206101
-1.153496386099920 7.790279482513570 37.481152540204100
-0.142343641113486 -3.284531834161290 38.590487491936003
2.914119696745310 1.975908421125870 26.317379581228700
3.528255353969650 0.720381500562956 26.909467234846900
7.742746627262550 1.946869904972990 36.930268626423199
7.181983243266530 2.586189977222450 35.758044935747499
4.948694079430950 5.335265740439040 42.841351001231303
3.396318172085960 5.087005876885220 43.026156131942898
-3.556351855735270 7.467300898740910 7.976909550964740
-2.482142337105050 -2.364880371038240 4.021152342685410
-3.951485259352810 2.711091167905690 12.203889089458301
-2.866120711397520 2.151500948712960 13.166979026675500
4.214108745413130 3.700710119670530 25.375565726903599
1.148611922657320 7.762277325832660 21.650317661633999
0.150501037692783 3.114281032447240 9.871150754734121
4.813138172405910 9.454765648076600 5.666679246430370
-5.206690514356300 1.819132787249080 14.608610194303500
-4.292589498584830 2.697626684518950 15.330761962516499
2.585121165592330 6.825615544123090 24.564577364779499
4.001782580355050 7.283498810901700 24.229973493689300
-0.112549394452278 1.132960504495730 22.780661670801599
-4.597869201492600 12.908017123187800 28.405867078588400
-4.543191391563640 12.005185403780599 4.602276381426110
-4.933576666185870 12.052136596049801 6.007006679874790
-3.940149959152670 5.501098899584970 15.938718673320899
-3.481417904539800 4.711004748121260 17.094318192759701
0.142806102720726 7.024142263503090 8.287537608937370
-1.258790440364080 7.151116088540320 8.955299710314280
-0.220352417798663 6.137078034374800 5.232883800584760
2.415053191559790 2.816666250670980 12.587146533104100
-2.223797449107690 -5.391958789620250 22.995446651393198
-2.334981026420490 4.178107330576140 22.412777663055898
-1.674771486912380 0.941178566793390 4.571502953279950
-0.324505251569908 0.305109819585696 4.522192766574510
-0.862918287332935 4.274234224898990 12.047953573672100
-1.747693937042310 3.086574833488010 11.658659754198100
-5.373335242804820 6.941951066822040 20.343865865846599
-1.915714870748220 4.703039064230900 15.605113754179900
-2.852307598899800 2.445371636386840 25.053198095127300
-2.129817528306440 3.605214404432310 24.263814470506500
-4.997431719976110 4.149855361937110 7.692936826471670
-4.603421489137310 2.968157777663320 8.535698122295161
2.796336899063030 9.615359726188069 16.715540980157002
4.030628945667940 8.868951147671270 16.254886183070401
-11.389373975229400 6.025353516112760 6.962810004673670
2.490110231982770 9.334871187766920 8.058951235115080
-0.931289325546247 4.703404512379910 7.401201760162720
-2.349870869014310 5.098380560883370 6.991387745536480
-0.037012107246939 5.736647460155190 18.707599442979301
0.176258037504775 6.439497957843200 20.067828258108701
2.142940643288250 4.522514204054520 22.494075558881200
1.484319829226820 5.157420480018360 23.681871037068799
1.046003045804120 6.112210174960250 11.902373762762400
2.174349666519470 6.601118468763370 12.840495780010800
-2.543383170544130 4.029540357801270 20.081331344114101
-2.117514788801640 5.129490026728270 19.158088886049399
-1.824009566753150 3.196446003021380 5.724138047786790
-1.292167807782610 3.031957854869750 4.320362925590750
0.660657909935451 7.814300718349820 14.482049664783300
-0.500633971243646 8.704231458564660 14.158592115679900
-3.751092689975980 7.059896303349630 19.689913849617000
-3.270068086596080 6.741429697836470 20.948632252526799
2.407371315947660 7.861866689217440 26.266357169353999
2.079930823432220 3.694547930929220 26.833796271368300
5.196362112819220 5.783678914333750 33.630955851013098
5.433881959404520 5.264572120057100 32.210466263446698
5.328330936400480 3.279611394380750 41.741596808790000
5.873293922473120 8.122153360116339 44.397576157233502
5.049123628676980 4.211718211891950 23.648563442048999
4.734812578560860 7.447431386848000 26.061000279655001
2.274184864837240 5.478322399726330 38.995517693704599
3.555396120387520 5.210797946903010 38.130852445357696
7.212171221192550 5.785648581859000 42.071122521876603
6.802617043629040 6.231954692480430 43.515115670771102
4.311546499038940 2.279009463426460 44.923569277581997
1.659843069030730 5.821853555120800 43.930917609810599
-0.810461932328145 7.343445605328850 35.545316321149500
-2.072791131592450 8.212420202386371 35.280752488349997
3.827878037418790 10.752782226431700 37.699937231834703
5.226660626496000 10.324399549129300 38.097821940477502
6.027259777751150 8.973258667120749 30.560988124394999
6.336014686682160 8.034419852365900 29.465587272452701
5.239033765104250 6.488908784305740 30.375998296658899
3.786252826781330 2.272312304198860 32.260095485069300
1.300860693618620 -3.726652914808270 42.185011121963399
-0.145433080284782 7.028107685083680 42.944180457312299
6.079737659645630 5.001904108340310 28.388974858733299
4.682211849606910 4.387962598066140 28.138339149880199
6.869494757214150 4.732396919837350 35.695293215358298
6.345131961301550 4.288713841587300 34.341276559409103
-3.136037185560930 10.290501590328599 39.401011817616201
6.435397918468400 1.817992417867860 41.043086906869902
2.210588783166110 2.557168221616970 43.422287583105302
2.851791109123910 3.738011807416330 43.971720773188501
0.692657977575584 4.404953779187130 31.767132939024201
1.647565073663060 3.648130773163570 31.043294726168799
5.320589900513600 5.005805256896480 38.448139950948402
5.895423850840650 3.682071703082380 38.283807315011401
0.258137492581488 7.304683222529170 24.863718707529198
7.432175192464380 2.699765435782280 26.382140498733200
-2.450867223525520 10.058793954302301 24.492329047203601
-3.759461959960960 9.775056847295019 23.882201618507700
0.423922338878688 3.940068376750340 39.802546145014297
1.226133009946030 4.326987350696710 41.023456069537900
4.595583071544400 6.548888684512230 44.955935625772298
4.058060090056910 5.276783739287910 45.588065488796197
5.677749497498340 0.554603731066964 31.869123902679501
4.721084391292600 0.655848406152791 33.050106473513502
2.475710100367540 -0.242384139446866 39.682680153736300
2.089344363422320 0.259450072530451 41.072943085766802
8.437656142912999 6.731122720713650 32.293641119723098
7.549351481229610 5.630886525283190 32.954683257246998
3.722152369660810 7.260376689519060 34.266468053776400
4.339487452199390 6.786244368378800 35.599555599698903
3.122811894832930 5.708671238123990 41.312736378685898
2.950471462056490 6.999473954029780 40.450925221311401
6.995382020088720 2.973315538882240 11.618642849391900
8.485132403399611 -3.473659866927300 12.298185438034499
8.618978889762470 -2.710924092742250 15.736791712733901
7.815784684110670 -3.858268130331700 15.150370939286800
8.379380046928389 1.607276816891070 23.234629477759999
7.860863176846810 7.542252524203100 22.204590539210201
10.454854572059400 -5.187969507216910 4.793429191628700
-2.502269033660190 2.805219233326150 7.802294008219520
5.078031380277410 1.753803806735590 15.485324839243701
5.298830462986750 2.747434304492180 16.651521582745300
6.725532175214820 4.850591314527400 25.045750831961200
5.509980890165830 4.791265283563270 26.105964404107102
9.115897539726380 -3.467599907327880 26.602319484164099
-2.347722969760240 -3.002916652913730 23.107969566836999
6.055756523638430 -2.396283372481200 16.696328944614400
5.593161160933790 -3.151565685323480 17.853365768263998
5.689180757271870 0.020675721162039 18.764417188558198
5.380700657629220 1.294414452960530 18.014084206545601
8.671085871084580 0.435584698162173 8.343510919558691
7.742728254455630 -0.573849178704084 9.021615454494000
7.353437583012360 5.858394184550810 10.547553109950400
4.720662561270300 3.076473674736480 9.049398966865020
2.192089613476700 1.522525518764480 22.293636846773300
1.466249164563780 2.644786970387790 23.015055174298201
1.652475520310090 -0.347329711757359 5.468968119305850
1.671375254645750 1.201806637334210 5.809144969933480
7.126504195179970 -1.741546447281740 11.154961194170300
6.302412875781520 -0.617182057229620 11.538957455703400
-1.169628211668290 5.691345209605460 14.694505801293101
5.980858748946620 -3.329858268638830 20.424782849622598
5.611340001678420 -1.784331362984360 26.056633003601299
5.507679075316740 -0.310338443839040 26.534553693565201
5.284999978216420 2.848481930689080 13.622107668567100
6.240300484766300 1.683633190735830 13.104175141367801
4.917819436656930 -1.712452083859830 19.984830162253800
5.265966827243620 -1.123656609382620 21.225399064359401
-0.381307496724206 -0.373267563215757 8.395203206901970
7.145446272167330 -3.444182774691630 7.499550666798530
6.317215386148210 0.607802836038884 9.279977453572450
5.813773201862920 1.402687676830050 8.082381562403221
5.773589003929720 2.182705145095620 19.951520719802801
6.350461922909120 3.543741684444360 19.910933942514198
6.564899699014470 -1.073560517970430 24.431697295882799
7.110529596880550 -1.870437739754240 23.365425978938699
14.252822746383600 0.443156007852359 16.656701763947702
12.845533285569999 0.475805425016363 16.115021860469401
2.600818976380600 7.780364653286800 19.827865945146801
3.206091623491890 -2.321867743867410 18.821388186106901
4.677944758518860 0.373029398423718 5.857616292307060
5.905918147540270 1.257375804438220 5.658594220284040
8.126441011550449 -0.976706218240942 15.755324265433700
6.984173090034710 -0.145143778110855 15.933985385082300
7.414590973539880 1.969947094440420 20.989080553604602
7.888749808062440 0.658990754242121 20.574457606285701
9.037757216790570 -1.560895653613750 30.361562930783698
8.762769904619111 -1.614250974443530 27.947002061801300
12.185921352208700 0.840628313687412 32.591689548197202
11.025893330338199 1.385536820720440 33.294776827501401
14.732187090403499 -1.118128717868570 45.003550134802403
12.541258468349900 3.273924306114220 43.416239191869202
12.473228167057099 -1.520833187282920 22.914444736106500
-2.124327289410710 4.637311333367550 27.604647349596600
9.852746861397220 4.021446865298700 38.303744633857001
8.584374001493890 3.408300834223810 38.842573647222700
12.838681333178100 0.328438172995090 44.944598966225499
12.418905858082301 1.540144295511720 44.206526259952902
8.316505971866411 -7.476683333248210 45.097194258932802
8.964587966980540 -0.990386532534796 44.159474266735899
7.805270464889200 -5.077228302424540 29.738287702854500
8.127195623644941 -3.918483658870750 28.801128573556301
6.997847401768630 1.121666839519770 39.014512266041400
8.457411378513729 1.277280485973940 38.830858400910301
13.881916499212400 3.924886104913760 34.076764222011903
12.834346285238899 2.963217895796810 33.536242648858803
9.123629993786070 5.160927864773830 33.790853769091797
12.437663789470401 -4.777929226760450 27.955385955015402
13.203544851465001 0.221382437104742 38.930289627802502
12.460284858878500 1.377493187350860 39.385140499873202
11.820525121986300 -0.308513216591059 28.224432708273000
10.680779505323001 -1.030600145464310 28.939306511384402
12.219069863838801 0.268043680459274 30.232549456763600
12.111268051064100 1.719614762772500 30.529141729060999
6.475973340835250 0.472568513342108 41.665570599956403
9.608369092660720 -0.705291041459979 37.864618544443303
5.976469131049270 -6.496177774055510 45.471281887798803
6.467156434039900 -6.883107164560180 44.141426203255499
3.986197482781190 -1.825063256952540 29.044690988122500
3.217162195194870 -0.571170841205516 29.428278697203702
11.204472999014200 0.285749254375559 36.766084528621299
10.760128503843800 -0.628534403074413 35.722390097851701
6.369042342749400 0.918082250075554 28.372381962874901
14.555536839672699 0.406985509023237 24.035584761555700
15.991122268153900 0.938735554810695 31.083481183855699
14.540340568689601 0.706724927237326 30.743770686502000
6.211349025580500 -0.604053082246727 39.939340194576602
7.218479070271540 -1.319119567189020 39.144446668775203
11.331559744415300 -5.614181107764260 43.714257957393400
11.144132466187600 -6.265336642263820 45.010008140000402
12.310431106192199 -2.464908871291900 28.767853125861599
13.747359146804300 -3.106409723142400 28.514769526691701
4.178765891845090 8.376136755982341 41.249883047215199
4.452801153557920 -2.330122964679730 39.791604843165899
10.917557894928899 -4.638546149527910 26.453752851840900
10.794851642436800 -3.378555903270220 25.733442522887600
16.149178738615500 3.426155345583820 35.034221129243399
15.789067883187601 4.809641490143100 34.414388686136597
11.356770398914700 -0.428322871446587 40.255549046546200
10.577265727679301 -0.089153547990224 41.443010284214999
8.764985427360481 9.014983525150440 12.363636704472700
6.642109710213890 1.717152905788190 10.943084748770000
3.007654752173360 8.365861836943900 10.464444497272099
2.656222362991890 6.907546246888640 10.798510729992101
7.127867031843650 6.576364925440140 23.198046140827799
7.848932007173130 11.520736312077799 24.167291213918300
10.528115587637600 1.360402164117240 7.663852071182560
-3.296453297755250 6.854143218973010 5.377131403328870
4.499958445482650 10.172124135804999 12.019553081196801
4.805199527157260 10.678917753344200 13.502641742467400
8.795656645052480 5.122158864326480 24.192371166386199
8.825934110010911 5.991257528433320 25.337097546433700
-1.031355647129510 -3.615533474680070 22.780692773445200
7.607258018334490 7.622002080246020 26.660672960708101
2.531869342638250 6.375235695629740 14.862504329084700
2.643246003361820 7.902078858082240 14.981979723737600
6.314774295267110 4.622989655337920 12.734032931177399
6.366932932875540 5.785245974462740 13.667695398218100
8.752822030206820 8.707550139230991 6.132488348294840
8.182998708615809 9.414379593904100 7.344735225913380
5.416233950309050 15.491229153253700 8.822319949390410
8.291799042894089 4.872490126719610 9.813651462157329
1.923380178596370 -5.043422320007410 20.899095546409701
2.733910293127120 4.770679664626520 20.372197929719398
4.779347439409820 6.756973003637800 10.018759264515500
5.923822072670400 6.710191282514430 9.197765963974931
4.537231140243250 3.780715591326900 11.367169566145700
5.352311188472180 5.018193652076990 10.832735161516499
4.041569777735810 4.888280555948740 16.038769688728198
12.202245547599000 1.748832773207170 18.548035206963299
4.371785367732780 1.224659777636470 20.823499703665899
4.060969093108160 2.609971897417540 21.161885244672700
3.114268577756570 4.725118942912710 8.026041496362099
1.804244628204120 4.101277818686940 8.169843414766421
6.979355347649820 5.437124952923720 19.405866790041301
8.278903213182071 4.613788577190450 18.945272762522201
2.683542030901180 7.882357728963650 8.347443905831231
1.535257338550950 7.487503846582050 6.709696363542860
9.645476170741791 5.123027789220800 12.990564588031001
9.297442682443551 5.879554817473740 11.766210457475500
6.341344263255390 4.620110799662510 15.666618961425600
6.745775557688750 4.185414896532140 17.089436026968400
4.398034154950430 6.087580248080150 22.134037555309799
5.360807479065830 7.180779782674580 22.492097852833101
9.708879937300280 0.966423691299288 14.612523622320300
11.110345482502099 1.356124974209880 14.491242602802300
1.318945742130730 2.087414674953910 20.325897536551199
0.686884807304251 3.313087382716590 19.780416746153598
8.338399200344050 4.739331508203260 5.488908194153370
7.819945178722110 3.307874904821590 5.595739230341460
5.254795486265540 7.655169489058560 13.562871711145400
6.745430982749090 7.777637641422930 13.371854149326200
4.076006047378820 6.502985462506840 19.265793300074701
4.904355092503740 5.274048124186910 19.395502313149699
8.576778251904710 10.802966741997100 28.767361557365000
10.208033513546001 -1.925188141688400 31.310488295668300
6.758818901614320 -1.375566148095850 32.545262846865100
7.881073162150590 -1.100111893708820 31.619464573453300
13.325194545936601 2.963697506509440 42.185398247580103
14.117804123669201 9.141237636482280 43.832318709198198
9.450940000608620 3.646032083981110 27.382622570268801
1.003496489913550 9.365040537763150 23.597683352544600
8.955971906633581 8.587331721783441 37.911373757591498
9.622726938551461 7.674514359644740 36.850098633455502
8.640874977702570 5.326350698143690 40.107027998987903
8.838586035082059 6.682822888347140 40.559023830295303
8.658868044131321 -0.484117830182459 45.528138234223803
9.320135549636101 3.460525374318920 43.937429398981600
6.642280922287660 6.223288505809130 36.787286347641000
8.077953736248840 6.504422362570890 36.895821360705398
10.643161841011800 7.578093899369820 39.659297353378697
10.283172185706100 8.758728803450721 40.543970929001397
13.225929233656901 8.413724726042020 26.447772603029701
12.427502186546301 9.446534065065441 25.735933412752502
12.941175906873900 5.165587059277430 27.204332915542501
10.633023370253300 5.002721044754510 34.011482963059997
5.442277379437370 -4.314731427101900 39.698402229464797
6.774735178687030 6.005736957881600 39.526378515517401
10.989042809685801 3.565840230002600 29.501431403969200
12.265472077500601 3.818930092255360 30.320421440442800
9.298270473459120 2.837114063827920 34.059152574817602
8.595902884510430 1.557924015634450 34.213554861712701
5.737812045684820 7.390969512273210 37.914645097519298
14.938319788815001 -1.037650054946500 37.941325860503603
9.558152253250141 2.076220591387230 45.917290720749598
10.574564964892501 1.086952312285200 45.429422625305598
9.741513340912480 2.687392559258250 31.049255461586501
8.962041408927290 1.886727976887760 32.059944706437904
10.171166828796300 3.352023366518690 40.402759187800399
11.545391689337100 3.443760287688430 41.067987011755498
8.320993175741730 1.655333768317640 25.930823789857499
12.718758966244801 5.763240862847870 24.581734748028101
7.951939032648230 3.679758297463300 29.961747862033398
8.535679493065439 4.405292997683610 28.743854593948999
12.059617168926000 3.340785414819520 37.633883351923899
13.322532868079699 2.661120059652010 37.355371965688803
10.292489444617800 6.940561595337490 42.049248616883901
9.906400041483970 7.068724081461080 43.413686054962099
16.230077095012199 8.656199986491149 37.367366060923700
15.349258884143000 7.504565679353390 37.791157229579298
10.529643818582800 0.960545220574110 43.425115497342397
9.859977340246401 1.773656632518650 42.234480693529797
13.639480899553600 0.872684230207104 27.170770613163299
13.220178495881600 2.191475332855730 27.338712175697001
12.097328348914500 7.889595334398040 30.745252966645999
12.447467460723599 8.851995318858959 31.719606723469902
10.188966107608801 5.251116602348910 36.914061722587299
10.688201671070800 4.290561303656290 35.849470871682598
0.000000000000000 0.000000000000000 0.000000000000000
3.191900000000000 0.000000000000000 0.000000000000000
1.595950000000000 2.764266000000000 0.000000000000000
4.787850000000000 2.764266000000000 0.000000000000000
0.000000000000000 1.842844000000000 1.382132000000000
3.191900000000000 1.842844000000000 1.382132000000000
1.595950000000000 4.607111000000000 1.382132000000000
4.787850000000000 4.607111000000000 1.382132000000000
0.000000000000000 0.000000000000000 2.764265000000000
3.191900000000000 0.000000000000000 2.764265000000000
1.595950000000000 2.764266000000000 2.764265000000000
4.787850000000000 2.764266000000000 2.764265000000000
0.000000000000000 0.000000000000000 47.792124999999999
3.191900000000000 0.000000000000000 47.792124999999999
1.595950000000000 2.764266000000000 47.792124999999999
4.787850000000000 2.764266000000000 47.792124999999999
0.000000000000000 1.842844000000000 49.174256999999997
3.191900000000000 1.842844000000000 49.174256999999997
1.595950000000000 4.607111000000000 49.174256999999997
4.787850000000000 4.607111000000000 49.174256999999997
0.000000000000000 0.000000000000000 50.556390000000000
3.191900000000000 0.000000000000000 50.556390000000000
1.595950000000000 2.764266000000000 50.556390000000000
4.787850000000000 2.764266000000000 50.556390000000000
0.000000000000000 5.528533000000000 0.000000000000000
3.191900000000000 5.528533000000000 0.000000000000000
1.595950000000000 8.292799000000000 0.000000000000000
4.787850000000000 8.292799000000000 0.000000000000000
0.000000000000000 7.371377000000000 1.382132000000000
3.191900000000000 7.371377000000000 1.382132000000000
1.595950000000000 10.135643999999999 1.382132000000000
4.787850000000000 10.135643999999999 1.382132000000000
0.000000000000000 5.528533000000000 2.764265000000000
3.191900000000000 5.528533000000000 2.764265000000000
1.595950000000000 8.292799000000000 2.764265000000000
4.787850000000000 8.292799000000000 2.764265000000000
0.000000000000000 5.528533000000000 47.792124999999999
3.191900000000000 5.528533000000000 47.792124999999999
1.595950000000000 8.292799000000000 47.792124999999999
4.787850000000000 8.292799000000000 47.792124999999999
0.000000000000000 7.371377000000000 49.174256999999997
3.191900000000000 7.371377000000000 49.174256999999997
1.595950000000000 10.135643999999999 49.174256999999997
4.787850000000000 10.135643999999999 49.174256999999997
0.000000000000000 5.528533000000000 50.556390000000000
3.191900000000000 5.528533000000000 50.556390000000000
1.595950000000000 8.292799000000000 50.556390000000000
4.787850000000000 8.292799000000000 50.556390000000000
6.383800000000000 0.000000000000000 0.000000000000000
9.575699999999999 0.000000000000000 0.000000000000000
7.979750000000000 2.764266000000000 0.000000000000000
11.171650000000000 2.764266000000000 0.000000000000000
6.383800000000000 1.842844000000000 1.382132000000000
9.575699999999999 1.842844000000000 1.382132000000000
7.979750000000000 4.607111000000000 1.382132000000000
11.171650000000000 4.607111000000000 1.382132000000000
6.383800000000000 0.000000000000000 2.764265000000000
9.575699999999999 0.000000000000000 2.764265000000000
7.979750000000000 2.764266000000000 2.764265000000000
11.171650000000000 2.764266000000000 2.764265000000000
6.383800000000000 0.000000000000000 47.792124999999999
9.575699999999999 0.000000000000000 47.792124999999999
7.979750000000000 2.764266000000000 47.792124999999999
11.171650000000000 2.764266000000000 47.792124999999999
6.383800000000000 1.842844000000000 49.174256999999997
9.575699999999999 1.842844000000000 49.174256999999997
7.979750000000000 4.607111000000000 49.174256999999997
11.171650000000000 4.607111000000000 49.174256999999997
6.383800000000000 0.000000000000000 50.556390000000000
9.575699999999999 0.000000000000000 50.556390000000000
7.979750000000000 2.764266000000000 50.556390000000000
11.171650000000000 2.764266000000000 50.556390000000000
6.383800000000000 5.528533000000000 0.000000000000000
9.575699999999999 5.528533000000000 0.000000000000000
7.979750000000000 8.292799000000000 0.000000000000000
11.171650000000000 8.292799000000000 0.000000000000000
6.383800000000000 7.371377000000000 1.382132000000000
9.575699999999999 7.371377000000000 1.382132000000000
7.979750000000000 10.135643999999999 1.382132000000000
11.171650000000000 10.135643999999999 1.382132000000000
6.383800000000000 5.528533000000000 2.764265000000000
9.575699999999999 5.528533000000000 2.764265000000000
7.979750000000000 8.292799000000000 2.764265000000000
11.171650000000000 8.292799000000000 2.764265000000000
6.383800000000000 5.528533000000000 47.792124999999999
9.575699999999999 5.528533000000000 47.792124999999999
7.979750000000000 8.292799000000000 47.792124999999999
11.171650000000000 8.292799000000000 47.792124999999999
6.383800000000000 7.371377000000000 49.174256999999997
9.575699999999999 7.371377000000000 49.174256999999997
7.979750000000000 10.135643999999999 49.174256999999997
11.171650000000000 10.135643999999999 49.174256999999997
6.383800000000000 5.528533000000000 50.556390000000000
9.575699999999999 5.528533000000000 50.556390000000000
7.979750000000000 8.292799000000000 50.556390000000000
11.171650000000000 8.292799000000000 50.556390000000000
-2.890412037706050 -4.252147341870670 8.377180767193069
-0.666438145788115 -1.997713702514680 17.122793860744299
3.291848341763050 3.501891998304510 25.648092503335501
0.594273438541166 3.100288733676480 9.010142089942329
0.780167436153701 -5.606165412634030 17.205804457949700
4.567142083110570 -0.661551461290731 22.834803332272301
-1.016202978243190 0.831185362600100 22.756130343562500
0.977077387711991 1.962982952901720 13.473301954419600
2.516490881802350 1.680340594466400 17.408225185927702
2.643936190980100 -1.196048901660380 11.326097494696601
2.919768782575060 3.432060018100340 11.933323022387500