
   1.00000000000000
     12.0000000000000000    0.0000000000000000    0.0000000000000000
     0.0000000000000000    12.0000000000000000    0.0000000000000000
     0.0000000000000000    0.0000000000000000    12.0000000000000000
C H Cl
   1   3   2
direct
0.53294865 0.56575027 0.49613388
0.53110276 0.65294003 0.50241434
0.44611198 0.52863033 0.51450056
0.58463838 0.52611078 0.55968644
0.32726066 0.74478226 0.64936301
0.57915789 0.51894916 0.36275174
