Poscar file generated with pyiron
   1.00000000000000
    16.8820100000000011    0.0000000000000000    0.0000000000000000
   -18.0878680000000003   21.5211240000000004    0.0000000000000000
     0.0000000000000000    0.0000000000000000   34.1129540000000020
   H    Mg   Ne   O
   250   160    36   125
Selective dynamics
Direct
  0.2236015659375278  0.2506643238968344  0.5652106823611397   T   T   T
  0.1546663742118287  0.3103073908612972  0.3536644787569770   T   T   T
  0.7144981521129867  0.2680550281998680  0.4464242342551787   T   T   T
  0.4257463884649599  0.7967811852238640  0.5759644020365332   T   T   T
  0.9110990026862644  0.6357124308320165  0.5571075746661064   T   T   T
  0.5406680703280581  0.2324372266526755  0.3762195768009297   T   T   T
  0.0780549523529467  0.1126085766864885  0.5131270030448443   T   T   T
  0.8136825966698493  0.3548919316068448  0.3437568022525463   T   T   T
