Poscar file generated with pyiron       
   1.00000000000000     
    16.8820100000000011    0.0000000000000000    0.0000000000000000
   -18.0878680000000003   21.5211240000000004    0.0000000000000000
     0.0000000000000000    0.0000000000000000   34.1129540000000020
   H    Mg   Ne   O 
   2   10    3   4
Selective dynamics
Direct
  0.1715575596721208  0.8556405582502118  0.4047756892382663   T   T   T
  0.3178621519935870  0.3484121141522272  0.4065378422804607   T   T   T
  0.0012828799999980  0.0069613499999974  0.0049393944748672   F   F   F
  0.3721727499999972  0.0502127999999971  0.0102223668268593   F   F   F
  0.3837418700000015  0.5863428199999987  0.0174215551586059   F   F   F
  0.5084189299999977  0.5398840599999986  0.0108330938750569   F   F   F
  0.2421990699999981  0.0953687100000025  0.0167021120307993   F   F   F
  0.1168439300000017  0.1442088299999966  0.0227525428122064   F   F   F
  0.1215754700000033  0.6772246000000024  0.0267835398631888   F   F   F
  0.2493204399999982  0.6289031600000001  0.0217587698117470   F   F   F
  0.4869111599999982  0.1897335299999980  0.0293219178683373   F   F   F
  0.3604065700000021  0.2371621200000007  0.0359356534165727   F   F   F
  0.0000000000000000  0.0000000000000000  0.6482274767071630   F   F   F
  0.0000000000000000  0.1666666666666643  0.6482274767071630   F   F   F
  0.0000000000000000  0.3333333333333357  0.6482274767071630   F   F   F
  0.1648989471007067  0.2116059363822458  0.5523843316407769   T   T   T
  0.1063518740327982  0.3086915202621594  0.3403181525251788   T   T   T
  0.7644910254577636  0.3096621984970398  0.4341492706594630   T   T   T
  0.4936055127186247  0.8162239531963615  0.5612897097217281   T   T   T

  0.15272256E-02  0.66860489E-01  0.20945513E-01
 -0.30926500E-01  0.18560627E-01  0.15978875E-01
  0.00000000E+00  0.00000000E+00  0.00000000E+00
  0.00000000E+00  0.00000000E+00  0.00000000E+00
  0.00000000E+00  0.00000000E+00  0.00000000E+00
  0.00000000E+00  0.00000000E+00  0.00000000E+00
  0.00000000E+00  0.00000000E+00  0.00000000E+00
  0.00000000E+00  0.00000000E+00  0.00000000E+00
  0.00000000E+00  0.00000000E+00  0.00000000E+00
  0.00000000E+00  0.00000000E+00  0.00000000E+00
  0.00000000E+00  0.00000000E+00  0.00000000E+00
  0.00000000E+00  0.00000000E+00  0.00000000E+00
  0.00000000E+00  0.00000000E+00  0.00000000E+00
  0.00000000E+00  0.00000000E+00  0.00000000E+00
  0.00000000E+00  0.00000000E+00  0.00000000E+00
  0.11131838E-03 -0.15756059E-01  0.20320929E-02
  0.10193097E-01  0.80017874E-02  0.12503824E-01
 -0.39623482E-02  0.72553663E-02  0.28633078E-02
  0.51834484E-02 -0.87084894E-02 -0.69561040E-02
