Poscar file generated with pyiron       
   1.00000000000000     
    16.8820100000000011    0.0000000000000000    0.0000000000000000
   -18.0878680000000003   21.5211240000000004    0.0000000000000000
     0.0000000000000000    0.0000000000000000   34.1129540000000020
   H    Mg   Ne   O 
   20   160    36   125
Selective dynamics
Direct
  0.1715575596721208  0.8556405582502118  0.4047756892382663   T   T   T
  0.3178621519935870  0.3484121141522272  0.4065378422804607   T   T   T
  0.8629133474698825  0.2232401578182103  0.6221903276617992   T   T   T
  0.2145404104003659  0.5447625000823866  0.5693626189244049   T   T   T
  0.2549150514477085  0.7490261826278041  0.3374597672389176   T   T   T
  0.3292867807206308  0.8632848905028955  0.3720390091832541   T   T   T
  0.3564783217080257  0.2780180104675852  0.4162757851399660   T   T   T
  0.5006825257553290  0.5078772246572661  0.5283962909391908   T   T   T
  0.9688317112409134  0.4650541654452731  0.4691279759664165   T   T   T
  0.6862982747543755  0.9828609348587967  0.4206165327070504   T   T   T
  0.5472072292777034  0.0419359530517866  0.5590274796927133   T   T   T
  0.3154507881174776  0.9630997213408834  0.3436228197248966   T   T   T
  0.6161578078855527  0.4776853764217216  0.5505094476364414   T   T   T
  0.0225030891041122  0.9127390791219930  0.4740360737219788   T   T   T
  0.3833206729331095  0.6212959797179378  0.3964539101529366   T   T   T
  0.8666719671531733  0.0634429817825942  0.4368027489928508   T   T   T
  0.4539418861684732  0.0089553555891532  0.4391127821471003   T   T   T
  0.0593132727348767  0.6066051810790331  0.5414054135064984   T   T   T
  0.4419954532824980  0.4859462632565880  0.4349039421826538   T   T   T
  0.3650551756154136  0.6504654759590730  0.5292601523957167   T   T   T
  0.0012828799999980  0.0069613499999974  0.0049393944748672   F   F   F
  0.3721727499999972  0.0502127999999971  0.0102223668268593   F   F   F
  0.3837418700000015  0.5863428199999987  0.0174215551586059   F   F   F
  0.5084189299999977  0.5398840599999986  0.0108330938750569   F   F   F
  0.2421990699999981  0.0953687100000025  0.0167021120307993   F   F   F
  0.1168439300000017  0.1442088299999966  0.0227525428122064   F   F   F
  0.1215754700000033  0.6772246000000024  0.0267835398631888   F   F   F
  0.2493204399999982  0.6289031600000001  0.0217587698117470   F   F   F
  0.4869111599999982  0.1897335299999980  0.0293219178683373   F   F   F
  0.3604065700000021  0.2371621200000007  0.0359356534165727   F   F   F
  0.3597657099999978  0.7691639800000019  0.0407993088937246   F   F   F
  0.4895703999999981  0.7233684400000016  0.0338735995795076   F   F   F
  0.2320289600000010  0.2836113099999977  0.0426974893232241   F   F   F
  0.1040383200000008  0.3304041600000005  0.0495033763201249   F   F   F
  0.1019389599999982  0.8630120199999993  0.0539777978077609   F   F   F
  0.2315947600000001  0.8163000199999999  0.0469586942520195   F   F   F
  0.4771490299999996  0.3780208599999995  0.0558353756886092   F   F   F
  0.3481117400000002  0.4240496600000014  0.0641749935038902   F   F   F
  0.3413978800000024  0.9549507199999994  0.0711369350654394   F   F   F
  0.4729850800000008  0.9090848700000009  0.0617723784578743   F   F   F
  0.2202795299999991  0.4707610600000010  0.0714643918163205   F   F   F
  0.0925577699999991  0.5166842699999989  0.0806322397436077   F   F   F
  0.0892808400000007  0.0504417599999982  0.0884359606404246   F   F   F
  0.2137136600000034  0.0020102599999987  0.0779514982062466   F   F   F
  0.4629284399999989  0.5646099300000031  0.0917486425912202   F   F   F
  0.3342451799999964  0.6120379400000004  0.0974571843140168   F   F   F
  0.3335719600000004  0.1441615900000031  0.1006985620271337   F   F   F
  0.4612317400000023  0.0970403000000033  0.0941108871399834   F   F   F
  0.2044064700000021  0.6581761600000036  0.1028879669601821   F   F   F
  0.0758328300000031  0.7051198300000010  0.1088160228589032   F   F   F
  0.0767945600000033  0.2376243200000019  0.1142316061385458   F   F   F
  0.2062906299999980  0.1915967500000022  0.1078721022336140   F   F   F
  0.4470608700000014  0.7518685000000005  0.1158626502887046   F   F   F
  0.3201272299999971  0.7998162700000009  0.1233779764198459   F   F   F
  0.3216972299999981  0.3323197899999997  0.1280047074204163   F   F   F
  0.4491075199999983  0.2845750600000017  0.1208708093276272   F   F   F
  0.1923169100000024  0.8470641099999980  0.1304142453331139   F   F   F
  0.0639477200000016  0.8946871300000012  0.1389007387911008   F   F   F
  0.0662341199999972  0.4265915900000010  0.1440967563278406   F   F   F
  0.1941356600000006  0.3796178799999979  0.1361424791953141   F   F   F
  0.4325848783720957  0.9408234124126892  0.1513463459610673   T   T   T
  0.3006281606589378  0.9839906848171325  0.1574651883549727   T   T   T
  0.3141453140422887  0.5251283508396836  0.1642418035574851   T   T   T
  0.4399213033580106  0.4718671271060417  0.1539508345043758   T   T   T
  0.1852007114265780  0.0426903882718729  0.1676090209913677   T   T   T
  0.0549399116719944  0.0883277745334262  0.1744105739422996   T   T   T
  0.0511930054968538  0.6156287695637974  0.1769166370944360   T   T   T
  0.1848302075822103  0.5679577589452330  0.1702790345084542   T   T   T
  0.4223291141046706  0.1286029186930011  0.1807883777262883   T   T   T
  0.2991389085273515  0.1783253197182256  0.1875980418512448   T   T   T
  0.2997663560670533  0.7110867541424266  0.1902362506061525   T   T   T
  0.4203851282465144  0.6643877545811002  0.1841106038626840   T   T   T
  0.1731748357431065  0.2266725365078694  0.1910909399395378   T   T   T
  0.0397294377142844  0.2690415706292816  0.2001776605266154   T   T   T
  0.0375883227602616  0.8031707807664735  0.2002069745278212   T   T   T
  0.1612322328072437  0.7508235427878566  0.1963824001335873   T   T   T
  0.4159144804771940  0.3187789677185353  0.2047845447610622   T   T   T
  0.2912240970605989  0.3664993373028605  0.2146281426026518   T   T   T
  0.2776804261386255  0.8968901369901373  0.2192809422902208   T   T   T
  0.4190876349932268  0.8538559592784941  0.2094566163866159   T   T   T
  0.1580939629350570  0.4078896837909773  0.2209887690883572   T   T   T
  0.0347267251019589  0.4619817743991180  0.2310734997357342   T   T   T
  0.0323709201930801  0.9925908666989109  0.2370832057758561   T   T   T
  0.1503409184656004  0.9436810749317874  0.2263486647331681   T   T   T
  0.4040858977494691  0.5060663790278249  0.2406215144066082   T   T   T
  0.2665503550565271  0.5489952392220430  0.2463859479846302   T   T   T
  0.2612225395793034  0.0833769319051300  0.2486719121075163   T   T   T
  0.3962468057576506  0.0372300738705011  0.2415485708292415   T   T   T
  0.1397453871348146  0.5964746555967569  0.2508619791479486   T   T   T
  0.0101009224779212  0.6433758693465076  0.2604312230431754   T   T   T
  0.0138625907361547  0.1831343297303770  0.2627690782215863   T   T   T
  0.1292362348610127  0.1257938349365596  0.2577372863407754   T   T   T
  0.3755486276298275  0.6872551684188709  0.2621811412333216   T   T   T
  0.2485812748147604  0.7364826222631726  0.2701025768770579   T   T   T
  0.2541484064808694  0.2712525268529291  0.2764279766760392   T   T   T
  0.3883379707605905  0.2227518008177514  0.2716719316693513   T   T   T
  0.1090310577168618  0.7762430796461607  0.2729884382510356   T   T   T
  0.9977779143638232  0.8304507942997866  0.2824739022931125   T   T   T
  0.0023952012075693  0.3650469244750462  0.2890754350006229   T   T   T
  0.1239832688054232  0.3203644394104803  0.2741209753192519   T   T   T
  0.5012828799999980  0.0069613599999983  0.0049393944748672   F   F   F
  0.8721727499999972  0.0502127900000033  0.0102223668268593   F   F   F
  0.8837418800000023  0.5863428199999987  0.0174215551586059   F   F   F
  0.0084189299999977  0.5398840699999994  0.0108331003209301   F   F   F
  0.7421990699999981  0.0953687000000016  0.0167021120307993   F   F   F
  0.6168439300000017  0.1442088299999966  0.0227525428122064   F   F   F
  0.6215754799999971  0.6772246100000032  0.0267835398631888   F   F   F
  0.7493204499999990  0.6289031600000001  0.0217587698117470   F   F   F
  0.9869111599999982  0.1897335299999980  0.0293219178683373   F   F   F
  0.8604065800000029  0.2371621300000015  0.0359356534165727   F   F   F
  0.8597656999999970  0.7691639700000010  0.0407993088937246   F   F   F
  0.9895704099999989  0.7233684400000016  0.0338735995795076   F   F   F
  0.7320289700000018  0.2836113199999986  0.0426974893232241   F   F   F
  0.6040383300000016  0.3304041600000005  0.0495033763201249   F   F   F
  0.6019389499999974  0.8630120199999993  0.0539777978077609   F   F   F
  0.7315947600000001  0.8163000099999991  0.0469586942520195   F   F   F
  0.9771490299999996  0.3780208599999995  0.0558353756886092   F   F   F
  0.8481117400000002  0.4240496600000014  0.0641749935038902   F   F   F
  0.8413978999999969  0.9549507300000002  0.0711369286195662   F   F   F
  0.9729850900000017  0.9090848800000018  0.0617723784578743   F   F   F
  0.7202795199999983  0.4707610500000001  0.0714643918163205   F   F   F
  0.5925577599999983  0.5166842699999989  0.0806322397436077   F   F   F
  0.5892808500000015  0.0504417699999991  0.0884359606404246   F   F   F
  0.7137136600000034  0.0020102699999995  0.0779514982062466   F   F   F
  0.9629284499999997  0.5646099300000031  0.0917486425912202   F   F   F
  0.8342451800000035  0.6120379500000013  0.0974571843140168   F   F   F
  0.8335719600000004  0.1441615800000022  0.1006985620271337   F   F   F
  0.9612317300000015  0.0970402900000025  0.0941108871399834   F   F   F
  0.7044064800000029  0.6581761600000036  0.1028879605143089   F   F   F
  0.5758328399999968  0.7051198400000018  0.1088160228589032   F   F   F
  0.5767945600000033  0.2376243100000011  0.1142316061385458   F   F   F
  0.7062906199999972  0.1915967400000014  0.1078721022336140   F   F   F
  0.9470608600000006  0.7518685000000005  0.1158626502887046   F   F   F
  0.8201272299999971  0.7998162600000001  0.1233779764198459   F   F   F
  0.8216972299999981  0.3323197899999997  0.1280047074204163   F   F   F
  0.9491075199999983  0.2845750600000017  0.1208708093276272   F   F   F
  0.6923169000000016  0.8470640999999972  0.1304142517789799   F   F   F
  0.5639477100000008  0.8946871300000012  0.1389007387911008   F   F   F
  0.5662341199999972  0.4265916000000018  0.1440967563278406   F   F   F
  0.6941356700000014  0.3796178799999979  0.1361424791953141   F   F   F
  0.9423865398716690  0.9499763721843905  0.1485493874998012   T   T   T
  0.8071564286226645  0.9876199586674834  0.1555099383852413   T   T   T
  0.8106386026199323  0.5210716879146138  0.1620542164105515   T   T   T
  0.9516149859149329  0.4724757157582021  0.1559940811677707   T   T   T
  0.6822136082698185  0.0350962027074600  0.1647552066701660   T   T   T
  0.5582985477972229  0.0842067351658305  0.1728096651237445   T   T   T
  0.5547786944199464  0.6179823385192419  0.1776848640441429   T   T   T
  0.6749552933538516  0.5635395912582273  0.1729039814484924   T   T   T
  0.9282459566201727  0.1302391175166245  0.1791343595349517   T   T   T
  0.8012149799229238  0.1773532566179107  0.1862046939686381   T   T   T
  0.7992245506738184  0.7116339943598606  0.1896312288022551   T   T   T
  0.9210930670963001  0.6586948601159319  0.1806048528512325   T   T   T
  0.6690315176038584  0.2214014608613779  0.1905529372654475   T   T   T
  0.5346073624686413  0.2690179817824613  0.1969579848128078   T   T   T
  0.5411070711689020  0.8066440102752342  0.2000809544746582   T   T   T
  0.6652110117067753  0.7606328723882206  0.1933307045903250   T   T   T
  0.9113038641443587  0.3186351794428433  0.2039991503138610   T   T   T
  0.7903670483657967  0.3661622279982848  0.2166856259013103   T   T   T
  0.7868124224826665  0.9037745262020492  0.2247885947373241   T   T   T
  0.9068293628606205  0.8525882102871352  0.2092140782106930   T   T   T
  0.6703011893826419  0.4154611631807095  0.2206359724298592   T   T   T
  0.5349323214548042  0.4618641903731785  0.2312537947118403   T   T   T
  0.5272853152508681  0.9915387085706822  0.2366734259720456   T   T   T
  0.6537654975130462  0.9442615220151599  0.2277425356130991   T   T   T
  0.8945633145405595  0.5072610817678667  0.2404233328244006   T   T   T
  0.7686832376533390  0.5467577695768565  0.2430585143460328   T   T   T
  0.7684677993964998  0.0837785091491923  0.2474972304006924   T   T   T
  0.8926728209638451  0.0346909465077664  0.2449114869376417   T   T   T
  0.6396469509662089  0.6024906686373931  0.2495466693875766   T   T   T
  0.5042628105201701  0.6403059173487233  0.2598317684785583   T   T   T
  0.5189754972453099  0.1790347826554169  0.2624695596067683   T   T   T
  0.6416886445047549  0.1308872716025346  0.2582127177470914   T   T   T
  0.8797881153355929  0.6897948199116400  0.2651128308157617   T   T   T
  0.7472710976772712  0.7379591642973504  0.2684612569637755   T   T   T
  0.7613466185240307  0.2706855628167386  0.2749982188991907   T   T   T
  0.8816398345355310  0.2182925049750424  0.2689671786300463   T   T   T
  0.6173551561738142  0.7812915211103741  0.2769762550900996   T   T   T
  0.4954673242535043  0.8257503191169198  0.2818619435950211   T   T   T
  0.4965590143600628  0.3611398926593712  0.2909560339238513   T   T   T
  0.6354226768071602  0.3238676915841152  0.2844477184411390   T   T   T
  0.0000000000000000  0.0000000000000000  0.6482274767071630   F   F   F
  0.0000000000000000  0.1666666666666643  0.6482274767071630   F   F   F
  0.0000000000000000  0.3333333333333357  0.6482274767071630   F   F   F
  0.0000000000000000  0.5000000000000000  0.6482274767071630   F   F   F
  0.0000000000000000  0.6666666666666643  0.6482274767071630   F   F   F
  0.0000000000000000  0.8333333333333357  0.6482274767071630   F   F   F
  0.1666666666666643  0.0000000000000000  0.6482274767071630   F   F   F
  0.1666666666666643  0.1666666666666643  0.6482274767071630   F   F   F
  0.1666666666666643  0.3333333333333357  0.6482274767071630   F   F   F
  0.1666666666666643  0.5000000000000000  0.6482274767071630   F   F   F
  0.1666666666666643  0.6666666666666643  0.6482274767071630   F   F   F
  0.1666666666666643  0.8333333333333357  0.6482274767071630   F   F   F
  0.3333333333333357  0.0000000000000000  0.6482274767071630   F   F   F
  0.3333333333333357  0.1666666666666643  0.6482274767071630   F   F   F
  0.3333333333333357  0.3333333333333357  0.6482274767071630   F   F   F
  0.3333333333333357  0.5000000000000000  0.6482274767071630   F   F   F
  0.3333333333333357  0.6666666666666643  0.6482274767071630   F   F   F
  0.3333333333333357  0.8333333333333357  0.6482274767071630   F   F   F
  0.5000000000000000  0.0000000000000000  0.6482274767071630   F   F   F
  0.5000000000000000  0.1666666666666643  0.6482274767071630   F   F   F
  0.5000000000000000  0.3333333333333357  0.6482274767071630   F   F   F
  0.5000000000000000  0.5000000000000000  0.6482274767071630   F   F   F
  0.5000000000000000  0.6666666666666643  0.6482274767071630   F   F   F
  0.5000000000000000  0.8333333333333357  0.6482274767071630   F   F   F
  0.6666666666666643  0.0000000000000000  0.6482274767071630   F   F   F
  0.6666666666666643  0.1666666666666643  0.6482274767071630   F   F   F
  0.6666666666666643  0.3333333333333357  0.6482274767071630   F   F   F
  0.6666666666666643  0.5000000000000000  0.6482274767071630   F   F   F
  0.6666666666666643  0.6666666666666643  0.6482274767071630   F   F   F
  0.6666666666666643  0.8333333333333357  0.6482274767071630   F   F   F
  0.8333333333333357  0.0000000000000000  0.6482274767071630   F   F   F
  0.8333333333333357  0.1666666666666643  0.6482274767071630   F   F   F
  0.8333333333333357  0.3333333333333357  0.6482274767071630   F   F   F
  0.8333333333333357  0.5000000000000000  0.6482274767071630   F   F   F
  0.8333333333333357  0.6666666666666643  0.6482274767071630   F   F   F
  0.8333333333333357  0.8333333333333357  0.6482274767071630   F   F   F
  0.1648989471007067  0.2116059363822458  0.5523843316407769   T   T   T
  0.1063518740327982  0.3086915202621594  0.3403181525251788   T   T   T
  0.7644910254577636  0.3096621984970398  0.4341492706594630   T   T   T
  0.4936055127186247  0.8162239531963615  0.5612897097217281   T   T   T
  0.9851589519490979  0.6530047098786950  0.5624788328156254   T   T   T
  0.5454537173951256  0.2452340220992559  0.4050364691562027   T   T   T
  0.0314826187417369  0.0678827789901815  0.5090594101154545   T   T   T
  0.7493256121129866  0.3157974856828374  0.3308923462806008   T   T   T
  0.0656188691244665  0.6098378390706868  0.4127597005207335   T   T   T
  0.2358738150950866  0.9177415449582700  0.4566592892198902   T   T   T
  0.6874339427130991  0.0750735217115272  0.3570387319682577   T   T   T
  0.3510426964201523  0.3832497981673658  0.4831515804933172   T   T   T
  0.0161390139097142  0.4055552238963772  0.5234056870611014   T   T   T
  0.2900618221320511  0.4655069010466022  0.4558616067851842   T   T   T
  0.4909506775985824  0.8421703766134933  0.4696310208714849   T   T   T
  0.6945717666226777  0.8928027152610832  0.5788675721565261   T   T   T
  0.7878580137306946  0.3036342797294314  0.5357276401458200   T   T   T
  0.8671929784698821  0.7221510917321143  0.3383290036784841   T   T   T
  0.3334940089814191  0.3829526070979426  0.5953523173843320   T   T   T
  0.7664758403895910  0.7918467469660869  0.4136089394777099   T   T   T
  0.8528318394766404  0.8220542171098431  0.5700095068324286   T   T   T
  0.4374045585784890  0.0902579573383620  0.3583943432509938   T   T   T
  0.5254656040726808  0.2350217083291934  0.5990271880366471   T   T   T
  0.9053856406230856  0.7522444544463588  0.4374325400541438   T   T   T
  0.6646925497192083  0.5842532134671062  0.5602575749977206   T   T   T
  0.1968161812870708  0.0416221515114579  0.4202925044236052   T   T   T
  0.7454738060476651  0.1182055915251483  0.4690463594336053   T   T   T
  0.1929116984911119  0.5475932795528344  0.3580795401364645   T   T   T
  0.0635474383260739  0.5844715808986706  0.5993501309901866   T   T   T
  0.3423738812020148  0.9904301663969896  0.5386376994460321   T   T   T
  0.0514731635058965  0.8909427901138838  0.5655012417592452   T   T   T
  0.4072247555078752  0.3099716133162468  0.5146163322689203   T   T   T
  0.8828409178581454  0.2469089858017237  0.3940560972977185   T   T   T
  0.2706749401757171  0.4586454429703660  0.3576906740415430   T   T   T
  0.3842968478947339  0.0975792102924712  0.5564222016074745   T   T   T
  0.8745823012556445  0.2521414084342598  0.4908953289967776   T   T   T
  0.6084278990111955  0.4564304662632603  0.4606642916718534   T   T   T
  0.3474584971351679  0.1801352639403364  0.4769276762811790   T   T   T
  0.0634171630085909  0.2926603794314345  0.4455208071194139   T   T   T
  0.5231147683987885  0.8569352643629783  0.3514996141068052   T   T   T
  0.9625217216875896  0.1625833503292214  0.4061533631883736   T   T   T
  0.7797226451778579  0.6124267856405430  0.3914805209967870   T   T   T
  0.6099049901549379  0.4610315197650530  0.3667930129775226   T   T   T
  0.2448104818399556  0.4678106709568106  0.5642858297036113   T   T   T
  0.3965566208780042  0.5768894752418392  0.6020859147870348   T   T   T
  0.0726951153292896  0.0851407407633520  0.4265603735749682   T   T   T
  0.8261947244318254  0.0119900793749157  0.5426029650719176   T   T   T
  0.9115462242372362  0.4704609265319098  0.3643396682740734   T   T   T
  0.6424408494497348  0.6452036649902529  0.4434799611958515   T   T   T
  0.8927667308709349  0.7189407076768213  0.5292026502052444   T   T   T
  0.0509288555751878  0.8911571577605211  0.3623634694496265   T   T   T
  0.9815068333322102  0.1766496630972511  0.5153324398948378   T   T   T
  0.3267049591048286  0.6870298976146596  0.4966490882583980   T   T   T
  0.7455663734127647  0.5582128389187901  0.5240644584460195   T   T   T
  0.1473983294031039  0.0135705198159918  0.5550413491560198   T   T   T
  0.2555670935836868  0.1490767539187733  0.5749728199831600   T   T   T
  0.1622901508031106  0.2076997529028869  0.3686409409523883   T   T   T
  0.9243226577688894  0.4674412324744738  0.5781698704763798   T   T   T
  0.5717084870651679  0.7264535290921541  0.5533895252045040   T   T   T
  0.9386704783023474  0.9473859646146573  0.5487734273743601   T   T   T
  0.6283385772215098  0.1495409146600729  0.4900577299823585   T   T   T
  0.7195066513329763  0.4015985520744145  0.3628925669860559   T   T   T
  0.8118598111627741  0.5116701556840512  0.5120005736371557   T   T   T
  0.7130972377515284  0.5733364499956922  0.4968530133999041   T   T   T
  0.6424173657808386  0.9519277402011049  0.5767498936327203   T   T   T
  0.0167299014192394  0.4120097185025248  0.4106258509849784   T   T   T
  0.6245994279238540  0.1768948340542342  0.5801287503226525   T   T   T
  0.8141088646572325  0.5156977271012255  0.4113471575942951   T   T   T
  0.6915675308540710  0.6979546118006311  0.3636135764146399   T   T   T
  0.5721044470128688  0.7522411031051681  0.4392940534117198   T   T   T
  0.6911431762022011  0.8770158093490004  0.3834098504207984   T   T   T
  0.0414026886632649  0.4229032102178085  0.6148731193901346   T   T   T
  0.5511378415556105  0.2364581048007261  0.5234234769002135   T   T   T
  0.1060093936002545  0.7216406148308855  0.5710113371598737   T   T   T
  0.7870923570531336  0.8098989290036609  0.4952853029779546   T   T   T
  0.9583884568717299  0.9561811185577925  0.3372476148137544   T   T   T
  0.9117298764105335  0.1583683850560137  0.5901993979223781   T   T   T
  0.1361107935052090  0.5265499658354086  0.4630783842960518   T   T   T
  0.0110486131552189  0.6650137523033646  0.3651091294892169   T   T   T
  0.0074406775034827  0.6772179054133634  0.4711558649487732   T   T   T
  0.6488139908406227  0.1877001040492000  0.3989625819981492   T   T   T
  0.0606459164885181  0.3073168743618023  0.5478824236101160   T   T   T
  0.7276266887818441  0.1066448499883658  0.5550685126965089   T   T   T
  0.2222590878246427  0.7488841765053206  0.5391514063589127   T   T   T
  0.3571338950081087  0.8948488611597405  0.5856513502189781   T   T   T
  0.1913518223810027  0.0141966866409579  0.5018952265076073   T   T   T
  0.4192098977500270  0.1045997943734259  0.4508211058020469   T   T   T
  0.1964520680906920  0.2463032351941608  0.4558038050258746   T   T   T
  0.5587897363486878  0.7345435648266571  0.3472850700386296   T   T   T
  0.3867224678764813  0.8836040092131958  0.4831727512941634   T   T   T
  0.8509475427550175  0.0283131359463402  0.3536655471058132   T   T   T
  0.3161920978149623  0.1436679496764768  0.3544174527513551   T   T   T
  0.3300114778151951  0.2776145886009310  0.5706779178803838   T   T   T
  0.4121783086099272  0.6041760615436597  0.4994621649896079   T   T   T
  0.6961120143853169  0.8731678601908521  0.4791946257637010   T   T   T
  0.0442296017200187  0.0806558325686507  0.6082289840750991   T   T   T
  0.3255996692402234  0.6658242533845095  0.4067987579043454   T   T   T
  0.6490419762828054  0.3574640410805577  0.4538148149794378   T   T   T
  0.7652325656376531  0.6057000497538593  0.5761105794088833   T   T   T
  0.6456985303715221  0.6536775348158774  0.5466129184762699   T   T   T
  0.9608123680012284  0.9577237536819690  0.4250373329441407   T   T   T
  0.6036403287481761  0.9657205157399404  0.5037183083299535   T   T   T
  0.6494946775895880  0.3754728128513142  0.5791361082366711   T   T   T
  0.2512217359858628  0.7413869887516540  0.4468891323308887   T   T   T
  0.1290758010234431  0.8038201018049187  0.5043131741295962   T   T   T
  0.1917489488126985  0.8279033481432425  0.4015201270579982   T   T   T
  0.2840622245210344  0.3515782189247905  0.3830938173385183   T   T   T
  0.8561568222861727  0.2430789961746989  0.6018015425200821   T   T   T
  0.1354287233698359  0.5188639329290399  0.5657875451223389   T   T   T
  0.2347899374682441  0.7474189927445871  0.3656882442183993   T   T   T
  0.4008386602061273  0.8954614908259643  0.3881565882208118   T   T   T
  0.4221683941117311  0.2994437750151110  0.4015815847689810   T   T   T
  0.4931947898004059  0.5414622659434093  0.5222949658052751   T   T   T
  0.9337416824177830  0.4782335272050315  0.4780251185588200   T   T   T
  0.6080711738792988  0.9519397244212034  0.4196394203296996   T   T   T
  0.5411586536829057  0.0575997183882487  0.5848617301101291   T   T   T
  0.2471194288109869  0.9242517047909876  0.3463804150371571   T   T   T
  0.5438587985233256  0.4364007409173336  0.5521137307993554   T   T   T
  0.0425186617226714  0.8868450400158446  0.4751636304971550   T   T   T
  0.4222050665627867  0.6055280479549079  0.4000513966698135   T   T   T
  0.8648721867799020  0.0485054620629750  0.4613165299971302   T   T   T
  0.5205333307595112  0.0229402559094312  0.4323692001899600   T   T   T
  0.1115288106720563  0.6137082793915394  0.5221440510485267   T   T   T
  0.4802783681724186  0.4987020645168113  0.4066831895243931   T   T   T
  0.3218942285938118  0.6506096159475069  0.5542326660979675   T   T   T
 
  0.15272256E-02  0.66860489E-01  0.20945513E-01
 -0.30926500E-01  0.18560627E-01  0.15978875E-01
 -0.13235808E-01  0.53316425E-01  0.55689634E-02
  0.39970735E-01 -0.20084723E-01 -0.10903352E-01
  0.18206452E-01 -0.31730620E-01 -0.23161777E-01
 -0.80141743E-01 -0.99672133E-02  0.23608312E-01
 -0.16821726E-01 -0.62034369E-02 -0.61902954E-02
  0.43811378E-01 -0.21308683E-01 -0.21099109E-01
 -0.48478584E-02  0.57229766E-01  0.14455908E-01
 -0.55015540E-02  0.16457324E-01 -0.19681314E-01
  0.28920461E-02  0.50072025E-01 -0.15240213E-01
 -0.81427902E-02  0.32885481E-01 -0.16319076E-01
 -0.44647080E-01  0.31941798E-01 -0.22475771E-01
 -0.19022220E-01  0.28483105E-04  0.21722804E-01
  0.11198030E-01  0.41807515E-01 -0.54806655E-01
 -0.14899882E-01 -0.74350474E-01 -0.24925259E-01
 -0.84963224E-02 -0.15823391E-01  0.37351190E-01
 -0.34868054E-01 -0.29990240E-01  0.41728845E-01
 -0.13579186E-01 -0.49141369E-01  0.12704758E-01
  0.86770955E-01  0.15458938E-01 -0.59084730E-01
  0.00000000E+00  0.00000000E+00  0.00000000E+00
  0.00000000E+00  0.00000000E+00  0.00000000E+00
  0.00000000E+00  0.00000000E+00  0.00000000E+00
  0.00000000E+00  0.00000000E+00  0.00000000E+00
  0.00000000E+00  0.00000000E+00  0.00000000E+00
  0.00000000E+00  0.00000000E+00  0.00000000E+00
  0.00000000E+00  0.00000000E+00  0.00000000E+00
  0.00000000E+00  0.00000000E+00  0.00000000E+00
  0.00000000E+00  0.00000000E+00  0.00000000E+00
  0.00000000E+00  0.00000000E+00  0.00000000E+00
  0.00000000E+00  0.00000000E+00  0.00000000E+00
  0.00000000E+00  0.00000000E+00  0.00000000E+00
  0.00000000E+00  0.00000000E+00  0.00000000E+00
  0.00000000E+00  0.00000000E+00  0.00000000E+00
  0.00000000E+00  0.00000000E+00  0.00000000E+00
  0.00000000E+00  0.00000000E+00  0.00000000E+00
  0.00000000E+00  0.00000000E+00  0.00000000E+00
  0.00000000E+00  0.00000000E+00  0.00000000E+00
  0.00000000E+00  0.00000000E+00  0.00000000E+00
  0.00000000E+00  0.00000000E+00  0.00000000E+00
  0.00000000E+00  0.00000000E+00  0.00000000E+00
  0.00000000E+00  0.00000000E+00  0.00000000E+00
  0.00000000E+00  0.00000000E+00  0.00000000E+00
  0.00000000E+00  0.00000000E+00  0.00000000E+00
  0.00000000E+00  0.00000000E+00  0.00000000E+00
  0.00000000E+00  0.00000000E+00  0.00000000E+00
  0.00000000E+00  0.00000000E+00  0.00000000E+00
  0.00000000E+00  0.00000000E+00  0.00000000E+00
  0.00000000E+00  0.00000000E+00  0.00000000E+00
  0.00000000E+00  0.00000000E+00  0.00000000E+00
  0.00000000E+00  0.00000000E+00  0.00000000E+00
  0.00000000E+00  0.00000000E+00  0.00000000E+00
  0.00000000E+00  0.00000000E+00  0.00000000E+00
  0.00000000E+00  0.00000000E+00  0.00000000E+00
  0.00000000E+00  0.00000000E+00  0.00000000E+00
  0.00000000E+00  0.00000000E+00  0.00000000E+00
  0.00000000E+00  0.00000000E+00  0.00000000E+00
  0.00000000E+00  0.00000000E+00  0.00000000E+00
  0.00000000E+00  0.00000000E+00  0.00000000E+00
  0.00000000E+00  0.00000000E+00  0.00000000E+00
 -0.21598929E-02 -0.48501750E-03  0.31470150E-02
 -0.24200600E-02 -0.36835639E-02  0.30464281E-02
  0.55495292E-03  0.36203217E-02  0.30134490E-02
  0.40068258E-02 -0.93455125E-03  0.13160169E-02
 -0.19162189E-02  0.67062453E-02  0.26915688E-02
 -0.23665229E-02  0.45381287E-02  0.32171806E-02
 -0.27420911E-02 -0.17996845E-02 -0.33537373E-03
  0.25805737E-02  0.10191742E-02  0.22451128E-02
 -0.23336114E-02 -0.12750193E-02  0.42213730E-02
  0.15512784E-02  0.24660816E-02  0.43903063E-02
  0.10316739E-02  0.79587009E-03 -0.15059477E-04
 -0.50204789E-02  0.20749438E-02 -0.55389924E-03
  0.11774660E-02  0.23538196E-02  0.38143643E-03
  0.16057812E-02 -0.16301215E-02  0.11026029E-02
 -0.79154381E-03 -0.80225721E-03 -0.21136112E-02
  0.48355473E-04 -0.51421679E-02  0.46864132E-03
  0.26496070E-02  0.74973810E-03  0.79056638E-03
  0.32406103E-02  0.65297917E-03 -0.15437855E-02
 -0.29424105E-02 -0.94900210E-03 -0.21051445E-02
  0.55102218E-02  0.27609009E-02 -0.47714552E-02
  0.26596008E-02 -0.56762416E-02 -0.31325850E-02
  0.21681414E-02  0.19215494E-02 -0.41912423E-03
  0.36573668E-02  0.23472296E-02  0.57526184E-03
 -0.16206293E-02 -0.11632040E-02 -0.40425860E-02
  0.26913669E-02 -0.65377193E-03  0.35551230E-02
  0.39548050E-03 -0.14016833E-02  0.20089478E-02
 -0.29223601E-02 -0.20808529E-03 -0.20867961E-02
 -0.12842492E-02  0.26030026E-03 -0.26686677E-02
 -0.99148108E-03 -0.25713000E-02 -0.11806245E-02
  0.11764000E-02 -0.28798405E-02  0.24221227E-02
 -0.37950063E-02  0.47752070E-02 -0.10701243E-05
 -0.48467465E-02 -0.55009163E-02  0.61683124E-03
 -0.71950910E-03 -0.23509149E-02 -0.68413242E-02
  0.80217062E-03 -0.24639359E-02 -0.32112877E-02
 -0.20305839E-02 -0.11291263E-02 -0.67721776E-03
  0.42311308E-02 -0.80521179E-03  0.40721025E-02
 -0.13375793E-02 -0.42187278E-02 -0.36387985E-02