Poscar file generated with pyiron       
   1.00000000000000     
    16.8820100000000011    0.0000000000000000    0.0000000000000000
   -18.0878680000000003   21.5211240000000004    0.0000000000000000
     0.0000000000000000    0.0000000000000000   34.1129540000000020
   H    Mg   Ne   O 
   250   160    36   125
Selective dynamics
Direct
  0.2236015659375278  0.2506643238968344  0.5652106823611397   T   T   T
  0.1546663742118287  0.3103073908612972  0.3536644787569770   T   T   T
  0.7144981521129867  0.2680550281998680  0.4464242342551787   T   T   T
  0.4257463884649599  0.7967811852238640  0.5759644020365332   T   T   T
  0.9110990026862644  0.6357124308320165  0.5571075746661064   T   T   T
  0.5406680703280581  0.2324372266526755  0.3762195768009297   T   T   T
  0.0780549523529467  0.1126085766864885  0.5131270030448443   T   T   T
  0.8136825966698493  0.3548919316068448  0.3437568022525463   T   T   T
  0.0050178956591566  0.5772521331500041  0.4306078215432643   T   T   T
  0.2821166205678490  0.9637521675578269  0.4516706853734868   T   T   T
  0.6368815732946960  0.0709754261456233  0.3773791400710780   T   T   T
  0.4190659795624560  0.3945610270009700  0.4915554090394012   T   T   T
  0.0346872691980842  0.3783769099316270  0.5197703228560698   T   T   T
  0.2815337862216031  0.4323991643369007  0.4780638002410436   T   T   T
  0.5299012964826978  0.8307996515239627  0.4574813538511056   T   T   T
  0.7340245512368332  0.9088183479956273  0.6051158940587890   T   T   T
  0.8605743652312025  0.3444170268800458  0.5324154178380629   T   T   T
  0.8797927219863190  0.7599839069275200  0.3360661855032535   T   T   T
  0.3779607379225202  0.4224267907550334  0.5832216805618616   T   T   T
  0.7595986555816663  0.7848606165813423  0.3818569163959656   T   T   T
  0.7837163886374257  0.8043700727275144  0.5579160570558696   T   T   T
  0.5079779044631709  0.1149437675446384  0.3718029284969009   T   T   T
  0.4534830623758340  0.2143540209819675  0.6120773604073636   T   T   T
  0.8635093135683828  0.7501291632788625  0.4170264489721576   T   T   T
  0.6315543640888368  0.5816792484788131  0.5831453369447226   T   T   T
  0.1943983692030622  0.0257824997885710  0.3940196085169335   T   T   T
  0.7330159492375224  0.1227572329063601  0.4396677829591075   T   T   T
  0.2608463917913592  0.5630402567038758  0.3479449207645289   T   T   T
  0.1315722493458051  0.6012284522502261  0.5849031002100188   T   T   T
  0.3197769695358449  0.9509520065379327  0.5540492743904032   T   T   T
  0.0926709224677457  0.8918201192761810  0.5438496979932085   T   T   T
  0.4218720840398659  0.2817241504382926  0.5155276427445468   T   T   T
  0.9399425127579346  0.2764426345691346  0.3721947463397888   T   T   T
  0.2763673457366955  0.4604260995610666  0.3884127622215952   T   T   T
  0.4624105060033244  0.1204020164949737  0.5560346051555870   T   T   T
  0.8378841164777576  0.2638732198144108  0.5045366687217434   T   T   T
  0.6105844855150074  0.4592959748561431  0.4312502874584300   T   T   T
  0.2672188237230373  0.1533984524489321  0.4743775271959405   T   T   T
  0.1427638046321635  0.3364041954564539  0.4455930217316441   T   T   T
  0.5380398403425883  0.8363436810640585  0.3705038512246546   T   T   T
  0.9482564323280850  0.1879665460968411  0.3951694616748705   T   T   T
  0.7055285419950609  0.5780236798572705  0.3776223399532903   T   T   T
  0.6077257252080053  0.4710105889297972  0.3375442078702871   T   T   T
  0.2862946455506732  0.4771193650051287  0.5395606512792434   T   T   T
  0.4181468530789323  0.5502022360990897  0.5975369482024179   T   T   T
  0.1001677784952468  0.0674603639439375  0.4375707091606470   T   T   T
  0.8839334564504729  0.0400224539323923  0.5587583425845090   T   T   T
  0.9715616682540766  0.4753076692022450  0.3513491271325971   T   T   T
  0.5975857362202929  0.6544943938104825  0.4520316709135675   T   T   T
  0.9039524230442477  0.7438373522508358  0.5055924088546476   T   T   T
  0.0542061862847759  0.8621197565063203  0.3769622434564200   T   T   T
  0.9398301467089317  0.1227094219757826  0.4652755061829259   T   T   T
  0.2662019770423785  0.6582189543582607  0.5203790121437050   T   T   T
  0.7338355715410056  0.5014920261854406  0.5257265774484660   T   T   T
  0.2678281914821959  0.2197125930461168  0.3646281760978448   T   T   T
  0.2152733412682524  0.1058648357413311  0.5777770622144885   T   T   T
  0.1752842967379687  0.1971266027577190  0.3437943158758102   T   T   T
  0.8934481421227739  0.4276651208727499  0.5918775626555496   T   T   T
  0.5332920724407518  0.7261199931011866  0.5317879403859176   T   T   T
  0.9922239636796553  0.9508120295549993  0.5633617091293005   T   T   T
  0.6678428091398669  0.1359141369720865  0.4955581170455289   T   T   T
  0.6974588596020393  0.3800613577816389  0.3894095959345334   T   T   T
  0.8149737322357034  0.5143641974849008  0.4816180212237062   T   T   T
  0.7354229599926257  0.6118017208678984  0.5101973215953082   T   T   T
  0.6164422821626777  0.9304604602128046  0.5530204458534526   T   T   T
  0.0308953490572887  0.3932617678348962  0.4307741461659351   T   T   T
  0.5982996391630441  0.1410212250597830  0.5631680420890076   T   T   T
  0.8572147318799125  0.5628025510808347  0.4097872766767893   T   T   T
  0.6190828144723265  0.6724593750924359  0.3747925448179350   T   T   T
  0.4949949558996536  0.7309571325071429  0.4439528253707621   T   T   T
  0.7066367816707358  0.9166784990372092  0.3907876344206278   T   T   T
  0.0433288033870968  0.4467894311938099  0.5915485032095354   T   T   T
  0.5199307036700243  0.2494906173844856  0.5418606780124237   T   T   T
  0.1345412252256889  0.7203295789075053  0.5475710502439074   T   T   T
  0.7245299997143545  0.7633682088972306  0.5019383564499700   T   T   T
  0.9403207488648749  0.9143739985803316  0.3335118483452054   T   T   T
  0.9342763142877749  0.1486018265735584  0.5656489916092321   T   T   T
  0.1541805475745747  0.5661484624274608  0.4689006891815451   T   T   T
  0.9394208933750180  0.6397272847082527  0.3756514512880162   T   T   T
  0.9288874210692776  0.6495886128322749  0.4745930585365319   T   T   T
  0.7026722444213780  0.1980104039763658  0.3840525285254348   T   T   T
  0.9977017266133730  0.2791225035962123  0.5643431994672823   T   T   T
  0.8005848272606834  0.1548378910420226  0.5591945239918713   T   T   T
  0.2002307071005434  0.7155652650512088  0.5192346060105217   T   T   T
  0.3516269945025993  0.8610085211463794  0.5972564702522406   T   T   T
  0.2218237905987759  0.0486647746518576  0.5222390358572100   T   T   T
  0.4087351957108624  0.0847724156445121  0.4769941875120581   T   T   T
  0.2018621581770035  0.2182320927127642  0.4413092364730923   T   T   T
  0.5117541582732904  0.7124419021496288  0.3702129726879076   T   T   T
  0.3597770429428007  0.9014314747917814  0.4951303839660338   T   T   T
  0.9175510335880586  0.0698998572086120  0.3610820580424607   T   T   T
  0.2615098513516007  0.1235276995412055  0.3321543251845145   T   T   T
  0.3369288947321217  0.3196392340885614  0.5453033133077980   T   T   T
  0.4172364719728229  0.5984004431786175  0.5293651368064338   T   T   T
  0.6623893423782374  0.8703471856549622  0.5025029913654873   T   T   T
  0.9775336170446418  0.0408396029892958  0.5968547093770535   T   T   T
  0.3087335130322391  0.6877528040298694  0.4241808451952515   T   T   T
  0.7094113578268594  0.3674587513768013  0.4713835334552349   T   T   T
  0.7382082492276099  0.5624443653854218  0.5874197537835251   T   T   T
  0.5852718835462102  0.6515574320775327  0.5382389731027523   T   T   T
  0.8982910066748854  0.9276173325309092  0.4425385686133769   T   T   T
  0.5495864636172909  0.9415691751508249  0.5257375300826723   T   T   T
  0.6223023324862837  0.3284100067977556  0.5826016131030871   T   T   T
  0.3048196842964753  0.7869083642473521  0.4463944891968498   T   T   T
  0.1956683503211481  0.8424312785022074  0.4960951221473605   T   T   T
  0.1460564649890621  0.7983402927661614  0.4261120142717993   T   T   T
  0.3363663614706036  0.3981395108884503  0.3755717717154052   T   T   T
  0.8409168663309452  0.2679097320716733  0.6145544356517214   T   T   T
  0.1212202068988332  0.5174840618688406  0.5363319155682963   T   T   T
  0.1672395563569524  0.7081647810509835  0.3644692807753374   T   T   T
  0.4232101968507996  0.9322856338226762  0.3723461637575819   T   T   T
  0.4724921409640316  0.3216995053092124  0.4231269654524057   T   T   T
  0.4558504863779310  0.5223597542551961  0.4950793707223148   T   T   T
  0.9536685449143930  0.4856355903646004  0.5067378261629573   T   T   T
  0.5884264836444248  0.9407909936192080  0.3909402516427704   T   T   T
  0.4650648812175910  0.0277348407949916  0.5833685269761095   T   T   T
  0.2132908495282272  0.9299885990992593  0.3225243560480393   T   T   T
  0.5490648230945199  0.4136910219652057  0.5758206312714939   T   T   T
  0.9752278874800571  0.8432131418436398  0.4719008763166487   T   T   T
  0.3719504236081443  0.5626497853221537  0.4074971484571735   T   T   T
  0.9294314891607242  0.0506062277813345  0.4612822731907015   T   T   T
  0.5412296587929973  0.0065631239291074  0.4563920960388402   T   T   T
  0.1112322873594780  0.6379601735615300  0.5026425645490905   T   T   T
  0.5238355092848497  0.5442850058909406  0.4097312130758515   T   T   T
  0.3255395796593186  0.6886534573938683  0.5582963195147259   T   T   T
  0.1188065545935948  0.2197395993663940  0.5446336079676026   T   T   T
  0.0336308501142380  0.2816051314688277  0.3519470857733530   T   T   T
  0.8299709921899591  0.3156732811871444  0.4385898274543109   T   T   T
  0.5058351720096737  0.8527044139645492  0.5479795926116481   T   T   T
  0.0115996633351206  0.6697456434646227  0.5896394957253180   T   T   T
  0.4937365461475564  0.2551660625585124  0.4064254778579507   T   T   T
  0.0559586539419708  0.0568062888764100  0.5309003466450244   T   T   T
  0.7181181999010794  0.3097021693708840  0.3568217220245221   T   T   T
  0.0283895139092147  0.5939102902297008  0.3879957915697935   T   T   T
  0.1676368076226387  0.9087417654715444  0.4543873490179210   T   T   T
  0.7348628321625116  0.1221920556636168  0.3501787753727577   T   T   T
  0.2975316201322740  0.3636119267084060  0.5046756267414541   T   T   T
  0.0152891709754503  0.4162708667735078  0.4964127382866496   T   T   T
  0.2374550594581706  0.4642410462593085  0.4722393351469106   T   T   T
  0.5425092112411724  0.8894536614739537  0.4627943128007432   T   T   T
  0.6260155255444119  0.8775631705845569  0.5906018266236978   T   T   T
  0.7367887480332522  0.3134396707767390  0.5295491013176938   T   T   T
  0.8561500776864017  0.7142681910789369  0.3656487573226093   T   T   T
  0.3756457342781432  0.3754165023352340  0.5783027486336138   T   T   T
  0.6895283027556020  0.7720279180804480  0.4138073293651289   T   T   T
  0.9032744012258590  0.8490403992493543  0.5487582042456570   T   T   T
  0.4147827530629740  0.1122993872842539  0.3699760897348128   T   T   T
  0.5048610264148433  0.2045182506134006  0.5762247251738795   T   T   T
  0.9474661995585349  0.7421670288620769  0.4274568350251412   T   T   T
  0.1893207926845759  0.3644435963044281  0.4480863081935650   T   T   T
  0.2390470580163074  0.0349951503146926  0.4355288715979274   T   T   T
  0.7493180341215818  0.0816919417346661  0.4690207811261277   T   T   T
  0.1553411101888946  0.5018174975335915  0.3691034517821926   T   T   T
  0.0066148375144469  0.5469387743143453  0.5863219053076525   T   T   T
  0.2806521495543148  0.9859912475309072  0.5356559770977188   T   T   T
  0.0980052367976091  0.8998302901275108  0.5885060902356225   T   T   T
  0.4637416986025977  0.3493621543214944  0.5317343235214655   T   T   T
  0.9325324085095738  0.2599058538804922  0.4142531991214217   T   T   T
  0.3392184614121818  0.4714424222599664  0.3468750609722349   T   T   T
  0.3645742028723385  0.0829823317704668  0.5838330217123485   T   T   T
  0.8969969715298556  0.2367669761334068  0.5122764083416744   T   T   T
  0.6561733952547499  0.4462375440661626  0.4654525465425575   T   T   T
  0.3587212032718155  0.1494412474942173  0.4698879278391884   T   T   T
  0.0349094954860104  0.2841281138557398  0.4747405191549420   T   T   T
  0.4884512643800202  0.8697831285426147  0.3669381709741572   T   T   T
  0.0371942695814971  0.1905244784374611  0.4015958430422327   T   T   T
  0.7757648046962528  0.6454594391440499  0.4035685095478661   T   T   T
  0.5875471610244161  0.4195182162129770  0.3612278734851824   T   T   T
  0.2902805122736332  0.4721443076669758  0.5858328173740637   T   T   T
  0.4435398297171145  0.6027796634410734  0.6255019052873886   T   T   T
  0.1323870294296356  0.1318359584926694  0.4190529639607181   T   T   T
  0.7858493630660439  0.9689824985384181  0.5558313293571678   T   T   T
  0.9195014529612896  0.4654143305664515  0.3945570895495892   T   T   T
  0.6944205511973334  0.6627106336370012  0.4661592622731490   T   T   T
  0.8223007990599034  0.7086946034205683  0.5338962683447372   T   T   T
  0.0271014214477973  0.9072422302576642  0.3828023027621918   T   T   T
  0.0353808980438008  0.2088201948257028  0.4961281177742944   T   T   T
  0.3501244571089548  0.7324249337020746  0.5009275513797431   T   T   T
  0.8239290738625393  0.5672300804450410  0.5669479060963635   T   T   T
  0.1435506324203513  0.9861405507632089  0.5345701095631494   T   T   T
  0.3208952033327283  0.1584956820689701  0.5612749039229600   T   T   T
  0.1962052159481330  0.2539821313566275  0.3676534910162499   T   T   T
  0.8580999457442890  0.4587505479106254  0.5700024145891268   T   T   T
  0.5858468974104379  0.7613355395958555  0.5686067280175607   T   T   T
  0.8701172206704642  0.9190768407965135  0.5617250808565867   T   T   T
  0.6719757140822362  0.1944507783010297  0.4992281017525989   T   T   T
  0.6495426063424130  0.3912945798859147  0.3599061276991404   T   T   T
  0.8590332860063833  0.5579180181250922  0.5169580332028458   T   T   T
  0.6585640300145784  0.5644333990814823  0.4764116968691713   T   T   T
  0.6101229356053203  0.9729942025228147  0.5823856850458156   T   T   T
  0.9858548725087517  0.3773280459978620  0.3892641857810890   T   T   T
  0.6920478231638261  0.2163486925301895  0.5686264325954754   T   T   T
  0.7571500550049068  0.5035030198820842  0.3921605430916814   T   T   T
  0.6933567070274846  0.6673073042034373  0.3513464765902100   T   T   T
  0.5583916947748825  0.7129016962652028  0.4433178070399607   T   T   T
  0.7308257922812328  0.8736244005691398  0.4042270204969360   T   T   T
  0.0465530561536665  0.3922746616357831  0.6015808947464492   T   T   T
  0.4949431745155509  0.1962789017753063  0.5089544185006484   T   T   T
  0.0682964369140814  0.7308380372383637  0.5591579526715972   T   T   T
  0.7873065365158511  0.8299311357392088  0.5208593687968190   T   T   T
  0.9464337942991846  0.9526306346894834  0.3656508953021721   T   T   T
  0.8909817347838256  0.1257386354527575  0.6105001671677573   T   T   T
  0.1858296673766101  0.5377655846903513  0.4423126021775589   T   T   T
  0.0557393623885697  0.6764521669312664  0.3901233025688198   T   T   T
  0.0238501649045989  0.6937306736778349  0.5002082844227784   T   T   T
  0.6460352430382139  0.1641839722965447  0.4187368874079669   T   T   T
  0.1121644552448685  0.3376602492704523  0.5679556249732759   T   T   T
  0.7692915899863773  0.0916137894302761  0.5547890685858683   T   T   T
  0.2637461511155321  0.7799569773207006  0.5187822008766748   T   T   T
  0.3596946717405935  0.9136543030276677  0.6108854708028554   T   T   T
  0.1284965733660136  0.0109408769705345  0.5033540005475496   T   T   T
  0.4923967759588294  0.1357586915677047  0.4483921834944434   T   T   T
  0.2654366041750563  0.2732450443178335  0.4670201330584290   T   T   T
  0.6031012679996226  0.7807415263565565  0.3567855834305368   T   T   T
  0.3706289599965377  0.8865753657694927  0.4544590285838618   T   T   T
  0.8002782530514542  0.0380318799102796  0.3545213508220306   T   T   T
  0.2826578925287547  0.1418236013162641  0.3805043032403445   T   T   T
  0.3250015328811827  0.3000672844006547  0.5944960894122185   T   T   T
  0.3513421691024738  0.5995976685984509  0.4943725960097333   T   T   T
  0.7622903719540807  0.9173638989334509  0.4746711226142701   T   T   T
  0.0746801216425847  0.1079017106112265  0.5855086336234127   T   T   T
  0.2563467856128624  0.6232293441840847  0.4006495774979154   T   T   T
  0.5953224005435725  0.3282749816340991  0.4749365736400339   T   T   T
  0.7293457813198104  0.5715239311212215  0.5388194693796303   T   T   T
  0.6858546042654939  0.6928514483853438  0.5656164344527321   T   T   T
  0.9940136779758537  0.9939701074345387  0.4434017106969768   T   T   T
  0.6766661520515980  0.9998209869878379  0.5145028498984255   T   T   T
  0.6460064213600712  0.3754462358752439  0.5504326281866164   T   T   T
  0.1941309428403791  0.7368768127881200  0.4633262552279377   T   T   T
  0.1532129950891638  0.8041205717553171  0.5305406526552308   T   T   T
  0.1715575596721208  0.8556405582502118  0.4047756892382663   T   T   T
  0.3178621519935870  0.3484121141522272  0.4065378422804607   T   T   T
  0.8629133474698825  0.2232401578182103  0.6221903276617992   T   T   T
  0.2145404104003659  0.5447625000823866  0.5693626189244049   T   T   T
  0.2549150514477085  0.7490261826278041  0.3374597672389176   T   T   T
  0.3292867807206308  0.8632848905028955  0.3720390091832541   T   T   T
  0.3564783217080257  0.2780180104675852  0.4162757851399660   T   T   T
  0.5006825257553290  0.5078772246572661  0.5283962909391908   T   T   T
  0.9688317112409134  0.4650541654452731  0.4691279759664165   T   T   T
  0.6862982747543755  0.9828609348587967  0.4206165327070504   T   T   T
  0.5472072292777034  0.0419359530517866  0.5590274796927133   T   T   T
  0.3154507881174776  0.9630997213408834  0.3436228197248966   T   T   T
  0.6161578078855527  0.4776853764217216  0.5505094476364414   T   T   T
  0.0225030891041122  0.9127390791219930  0.4740360737219788   T   T   T
  0.3833206729331095  0.6212959797179378  0.3964539101529366   T   T   T
  0.8666719671531733  0.0634429817825942  0.4368027489928508   T   T   T
  0.4539418861684732  0.0089553555891532  0.4391127821471003   T   T   T
  0.0593132727348767  0.6066051810790331  0.5414054135064984   T   T   T
  0.4419954532824980  0.4859462632565880  0.4349039421826538   T   T   T
  0.3650551756154136  0.6504654759590730  0.5292601523957167   T   T   T
  0.0012828799999980  0.0069613499999974  0.0049393944748672   F   F   F
  0.3721727499999972  0.0502127999999971  0.0102223668268593   F   F   F
  0.3837418700000015  0.5863428199999987  0.0174215551586059   F   F   F
  0.5084189299999977  0.5398840599999986  0.0108330938750569   F   F   F
  0.2421990699999981  0.0953687100000025  0.0167021120307993   F   F   F
  0.1168439300000017  0.1442088299999966  0.0227525428122064   F   F   F
  0.1215754700000033  0.6772246000000024  0.0267835398631888   F   F   F
  0.2493204399999982  0.6289031600000001  0.0217587698117470   F   F   F
  0.4869111599999982  0.1897335299999980  0.0293219178683373   F   F   F
  0.3604065700000021  0.2371621200000007  0.0359356534165727   F   F   F
  0.3597657099999978  0.7691639800000019  0.0407993088937246   F   F   F
  0.4895703999999981  0.7233684400000016  0.0338735995795076   F   F   F
  0.2320289600000010  0.2836113099999977  0.0426974893232241   F   F   F
  0.1040383200000008  0.3304041600000005  0.0495033763201249   F   F   F
  0.1019389599999982  0.8630120199999993  0.0539777978077609   F   F   F
  0.2315947600000001  0.8163000199999999  0.0469586942520195   F   F   F
  0.4771490299999996  0.3780208599999995  0.0558353756886092   F   F   F
  0.3481117400000002  0.4240496600000014  0.0641749935038902   F   F   F
  0.3413978800000024  0.9549507199999994  0.0711369350654394   F   F   F
  0.4729850800000008  0.9090848700000009  0.0617723784578743   F   F   F
  0.2202795299999991  0.4707610600000010  0.0714643918163205   F   F   F
  0.0925577699999991  0.5166842699999989  0.0806322397436077   F   F   F
  0.0892808400000007  0.0504417599999982  0.0884359606404246   F   F   F
  0.2137136600000034  0.0020102599999987  0.0779514982062466   F   F   F
  0.4629284399999989  0.5646099300000031  0.0917486425912202   F   F   F
  0.3342451799999964  0.6120379400000004  0.0974571843140168   F   F   F
  0.3335719600000004  0.1441615900000031  0.1006985620271337   F   F   F
  0.4612317400000023  0.0970403000000033  0.0941108871399834   F   F   F
  0.2044064700000021  0.6581761600000036  0.1028879669601821   F   F   F
  0.0758328300000031  0.7051198300000010  0.1088160228589032   F   F   F
  0.0767945600000033  0.2376243200000019  0.1142316061385458   F   F   F
  0.2062906299999980  0.1915967500000022  0.1078721022336140   F   F   F
  0.4470608700000014  0.7518685000000005  0.1158626502887046   F   F   F
  0.3201272299999971  0.7998162700000009  0.1233779764198459   F   F   F
  0.3216972299999981  0.3323197899999997  0.1280047074204163   F   F   F
  0.4491075199999983  0.2845750600000017  0.1208708093276272   F   F   F
  0.1923169100000024  0.8470641099999980  0.1304142453331139   F   F   F
  0.0639477200000016  0.8946871300000012  0.1389007387911008   F   F   F
  0.0662341199999972  0.4265915900000010  0.1440967563278406   F   F   F
  0.1941356600000006  0.3796178799999979  0.1361424791953141   F   F   F
  0.4325848783720957  0.9408234124126892  0.1513463459610673   T   T   T
  0.3006281606589378  0.9839906848171325  0.1574651883549727   T   T   T
  0.3141453140422887  0.5251283508396836  0.1642418035574851   T   T   T
  0.4399213033580106  0.4718671271060417  0.1539508345043758   T   T   T
  0.1852007114265780  0.0426903882718729  0.1676090209913677   T   T   T
  0.0549399116719944  0.0883277745334262  0.1744105739422996   T   T   T
  0.0511930054968538  0.6156287695637974  0.1769166370944360   T   T   T
  0.1848302075822103  0.5679577589452330  0.1702790345084542   T   T   T
  0.4223291141046706  0.1286029186930011  0.1807883777262883   T   T   T
  0.2991389085273515  0.1783253197182256  0.1875980418512448   T   T   T
  0.2997663560670533  0.7110867541424266  0.1902362506061525   T   T   T
  0.4203851282465144  0.6643877545811002  0.1841106038626840   T   T   T
  0.1731748357431065  0.2266725365078694  0.1910909399395378   T   T   T
  0.0397294377142844  0.2690415706292816  0.2001776605266154   T   T   T
  0.0375883227602616  0.8031707807664735  0.2002069745278212   T   T   T
  0.1612322328072437  0.7508235427878566  0.1963824001335873   T   T   T
  0.4159144804771940  0.3187789677185353  0.2047845447610622   T   T   T
  0.2912240970605989  0.3664993373028605  0.2146281426026518   T   T   T
  0.2776804261386255  0.8968901369901373  0.2192809422902208   T   T   T
  0.4190876349932268  0.8538559592784941  0.2094566163866159   T   T   T
  0.1580939629350570  0.4078896837909773  0.2209887690883572   T   T   T
  0.0347267251019589  0.4619817743991180  0.2310734997357342   T   T   T
  0.0323709201930801  0.9925908666989109  0.2370832057758561   T   T   T
  0.1503409184656004  0.9436810749317874  0.2263486647331681   T   T   T
  0.4040858977494691  0.5060663790278249  0.2406215144066082   T   T   T
  0.2665503550565271  0.5489952392220430  0.2463859479846302   T   T   T
  0.2612225395793034  0.0833769319051300  0.2486719121075163   T   T   T
  0.3962468057576506  0.0372300738705011  0.2415485708292415   T   T   T
  0.1397453871348146  0.5964746555967569  0.2508619791479486   T   T   T
  0.0101009224779212  0.6433758693465076  0.2604312230431754   T   T   T
  0.0138625907361547  0.1831343297303770  0.2627690782215863   T   T   T
  0.1292362348610127  0.1257938349365596  0.2577372863407754   T   T   T
  0.3755486276298275  0.6872551684188709  0.2621811412333216   T   T   T
  0.2485812748147604  0.7364826222631726  0.2701025768770579   T   T   T
  0.2541484064808694  0.2712525268529291  0.2764279766760392   T   T   T
  0.3883379707605905  0.2227518008177514  0.2716719316693513   T   T   T
  0.1090310577168618  0.7762430796461607  0.2729884382510356   T   T   T
  0.9977779143638232  0.8304507942997866  0.2824739022931125   T   T   T
  0.0023952012075693  0.3650469244750462  0.2890754350006229   T   T   T
  0.1239832688054232  0.3203644394104803  0.2741209753192519   T   T   T
  0.5012828799999980  0.0069613599999983  0.0049393944748672   F   F   F
  0.8721727499999972  0.0502127900000033  0.0102223668268593   F   F   F
  0.8837418800000023  0.5863428199999987  0.0174215551586059   F   F   F
  0.0084189299999977  0.5398840699999994  0.0108331003209301   F   F   F
  0.7421990699999981  0.0953687000000016  0.0167021120307993   F   F   F
  0.6168439300000017  0.1442088299999966  0.0227525428122064   F   F   F
  0.6215754799999971  0.6772246100000032  0.0267835398631888   F   F   F
  0.7493204499999990  0.6289031600000001  0.0217587698117470   F   F   F
  0.9869111599999982  0.1897335299999980  0.0293219178683373   F   F   F
  0.8604065800000029  0.2371621300000015  0.0359356534165727   F   F   F
  0.8597656999999970  0.7691639700000010  0.0407993088937246   F   F   F
  0.9895704099999989  0.7233684400000016  0.0338735995795076   F   F   F
  0.7320289700000018  0.2836113199999986  0.0426974893232241   F   F   F
  0.6040383300000016  0.3304041600000005  0.0495033763201249   F   F   F
  0.6019389499999974  0.8630120199999993  0.0539777978077609   F   F   F
  0.7315947600000001  0.8163000099999991  0.0469586942520195   F   F   F
  0.9771490299999996  0.3780208599999995  0.0558353756886092   F   F   F
  0.8481117400000002  0.4240496600000014  0.0641749935038902   F   F   F
  0.8413978999999969  0.9549507300000002  0.0711369286195662   F   F   F
  0.9729850900000017  0.9090848800000018  0.0617723784578743   F   F   F
  0.7202795199999983  0.4707610500000001  0.0714643918163205   F   F   F
  0.5925577599999983  0.5166842699999989  0.0806322397436077   F   F   F
  0.5892808500000015  0.0504417699999991  0.0884359606404246   F   F   F
  0.7137136600000034  0.0020102699999995  0.0779514982062466   F   F   F
  0.9629284499999997  0.5646099300000031  0.0917486425912202   F   F   F
  0.8342451800000035  0.6120379500000013  0.0974571843140168   F   F   F
  0.8335719600000004  0.1441615800000022  0.1006985620271337   F   F   F
  0.9612317300000015  0.0970402900000025  0.0941108871399834   F   F   F
  0.7044064800000029  0.6581761600000036  0.1028879605143089   F   F   F
  0.5758328399999968  0.7051198400000018  0.1088160228589032   F   F   F
  0.5767945600000033  0.2376243100000011  0.1142316061385458   F   F   F
  0.7062906199999972  0.1915967400000014  0.1078721022336140   F   F   F
  0.9470608600000006  0.7518685000000005  0.1158626502887046   F   F   F
  0.8201272299999971  0.7998162600000001  0.1233779764198459   F   F   F
  0.8216972299999981  0.3323197899999997  0.1280047074204163   F   F   F
  0.9491075199999983  0.2845750600000017  0.1208708093276272   F   F   F
  0.6923169000000016  0.8470640999999972  0.1304142517789799   F   F   F
  0.5639477100000008  0.8946871300000012  0.1389007387911008   F   F   F
  0.5662341199999972  0.4265916000000018  0.1440967563278406   F   F   F
  0.6941356700000014  0.3796178799999979  0.1361424791953141   F   F   F
  0.9423865398716690  0.9499763721843905  0.1485493874998012   T   T   T
  0.8071564286226645  0.9876199586674834  0.1555099383852413   T   T   T
  0.8106386026199323  0.5210716879146138  0.1620542164105515   T   T   T
  0.9516149859149329  0.4724757157582021  0.1559940811677707   T   T   T
  0.6822136082698185  0.0350962027074600  0.1647552066701660   T   T   T
  0.5582985477972229  0.0842067351658305  0.1728096651237445   T   T   T
  0.5547786944199464  0.6179823385192419  0.1776848640441429   T   T   T
  0.6749552933538516  0.5635395912582273  0.1729039814484924   T   T   T
  0.9282459566201727  0.1302391175166245  0.1791343595349517   T   T   T
  0.8012149799229238  0.1773532566179107  0.1862046939686381   T   T   T
  0.7992245506738184  0.7116339943598606  0.1896312288022551   T   T   T
  0.9210930670963001  0.6586948601159319  0.1806048528512325   T   T   T
  0.6690315176038584  0.2214014608613779  0.1905529372654475   T   T   T
  0.5346073624686413  0.2690179817824613  0.1969579848128078   T   T   T
  0.5411070711689020  0.8066440102752342  0.2000809544746582   T   T   T
  0.6652110117067753  0.7606328723882206  0.1933307045903250   T   T   T
  0.9113038641443587  0.3186351794428433  0.2039991503138610   T   T   T
  0.7903670483657967  0.3661622279982848  0.2166856259013103   T   T   T
  0.7868124224826665  0.9037745262020492  0.2247885947373241   T   T   T
  0.9068293628606205  0.8525882102871352  0.2092140782106930   T   T   T
  0.6703011893826419  0.4154611631807095  0.2206359724298592   T   T   T
  0.5349323214548042  0.4618641903731785  0.2312537947118403   T   T   T
  0.5272853152508681  0.9915387085706822  0.2366734259720456   T   T   T
  0.6537654975130462  0.9442615220151599  0.2277425356130991   T   T   T
  0.8945633145405595  0.5072610817678667  0.2404233328244006   T   T   T
  0.7686832376533390  0.5467577695768565  0.2430585143460328   T   T   T
  0.7684677993964998  0.0837785091491923  0.2474972304006924   T   T   T
  0.8926728209638451  0.0346909465077664  0.2449114869376417   T   T   T
  0.6396469509662089  0.6024906686373931  0.2495466693875766   T   T   T
  0.5042628105201701  0.6403059173487233  0.2598317684785583   T   T   T
  0.5189754972453099  0.1790347826554169  0.2624695596067683   T   T   T
  0.6416886445047549  0.1308872716025346  0.2582127177470914   T   T   T
  0.8797881153355929  0.6897948199116400  0.2651128308157617   T   T   T
  0.7472710976772712  0.7379591642973504  0.2684612569637755   T   T   T
  0.7613466185240307  0.2706855628167386  0.2749982188991907   T   T   T
  0.8816398345355310  0.2182925049750424  0.2689671786300463   T   T   T