SYSTEM=ToDo #jobname
PREC=Accurate
ALGO=Fast
ENCUT=250
LREAL=False
