Kpoints file generated with pyCMW
0
Monkhorst_Pack
4 4 4
0 0 0
