%mem=800MB
%chk=input.chk
#n B3LYP/6-31+G(d) sp 

no title

0 1
 H	 1.000000	 0.000000	 0.000000
 H	 0.000000	 1.000000	 0.000000
 O	 0.000000	 0.000000	 0.000000


